 # Version information for this restart file 
 # current date 2019-08-12 11:30:37.051
 # current working dir /Users/sllabres/Work/github_repos/CP2K_tutorials_for_biological_simulations/AMBER_NMA/section2/CP2K
 # Program compiled at                              Wed Apr 10 16:53:40 BST 2019
 # Program compiled on                                              S4A-Q177HV29
 # Program compiled for                           Darwin-IntelMacintosh-gfortran
 # Source code revision number                                         svn:18091
 &GLOBAL
   PRINT_LEVEL  LOW
   PROJECT_NAME EM
   RUN_TYPE  GEO_OPT
 &END GLOBAL
 &MOTION
   &GEO_OPT
     OPTIMIZER  LBFGS
     MAX_ITER  1000
     MAX_DR     1.0000000000000000E-02
     MAX_FORCE     1.0000000000000000E-02
     RMS_DR     5.0000000000000001E-03
     RMS_FORCE     5.0000000000000001E-03
     STEP_START_VAL  368
   &END GEO_OPT
   &PRINT
     &TRAJECTORY  SILENT
       FORMAT  XMOL
       &EACH
         GEO_OPT  500
       &END EACH
     &END TRAJECTORY
     &RESTART  SILENT
       &EACH
         GEO_OPT  500
       &END EACH
     &END RESTART
     &RESTART_HISTORY  SILENT
       &EACH
         GEO_OPT  500
       &END EACH
     &END RESTART_HISTORY
   &END PRINT
 &END MOTION
 &FORCE_EVAL
   METHOD  FIST
   &MM
     &FORCEFIELD
       PARMTYPE  AMBER
       PARM_FILE_NAME NMA.prmtop
       &SPLINE
         RCUT_NB     1.0000000000000002E+01
         EMAX_SPLINE     1.0000000000000000E+08
       &END SPLINE
     &END FORCEFIELD
     &POISSON
       &EWALD
         EWALD_TYPE  SPME
         ALPHA     4.0000000000000008E-01
         GMAX  80
       &END EWALD
     &END POISSON
   &END MM
   &SUBSYS
     &CELL
       A     4.0176040999999998E+01    0.0000000000000000E+00    0.0000000000000000E+00
       B     0.0000000000000000E+00    3.9302541000000005E+01    0.0000000000000000E+00
       C     0.0000000000000000E+00    0.0000000000000000E+00    3.9560913000000006E+01
       MULTIPLE_UNIT_CELL  1 1 1
     &END CELL
     &COORD
N    2.1286776643795122E+01    2.2379013701420927E+01    1.8073622200786271E+01
H    2.0807006542653429E+01    2.3141571350262428E+01    1.8544053485904261E+01
CT2    2.1790411544407501E+01    2.1304770526522105E+01    1.8899156904068175E+01
H1    2.1125152197554470E+01    2.0448931816373612E+01    1.8849294292130402E+01
H1    2.2776563399521020E+01    2.1013830388158745E+01    1.8555031024490411E+01
H1    2.1858138197004788E+01    2.1633037110190756E+01    1.9931313845034477E+01
HC    1.7451220204544772E+01    1.6866515805498526E+01    1.8673270246558499E+01
CT1    1.8383370145601575E+01    1.7391634790591105E+01    1.8834163076479225E+01
HC    1.8611866603963783E+01    1.7381741029670863E+01    1.9898804008209829E+01
HC    1.8218987605447435E+01    1.8413928379722336E+01    1.8530394863260828E+01
C    1.9484156018759144E+01    1.6777583858965983E+01    1.7978153057414360E+01
O    2.0379599081476229E+01    1.6132977888179678E+01    1.8529227005596820E+01
OW    3.0081882210537916E+01    2.7448454451116543E+01    2.6528238740845985E+01
HW    2.9601292709202284E+01    2.6642919594482336E+01    2.6254624194669706E+01
HW    3.0293958294113555E+01    2.7818718767430280E+01    2.5634791258926210E+01
OW    2.9712211208448945E+01    2.9543041793232735E+01    2.8226617510729156E+01
HW    2.9456819648101831E+01    2.9048852232087935E+01    2.9039087228392155E+01
HW    2.9791862953751686E+01    2.8778209697343879E+01    2.7601174722308695E+01
OW    2.4107564175290793E+01    3.0169346706248461E+01    2.9379491626822851E+01
HW    2.3354953028105001E+01    2.9661652640967468E+01    2.9760412345953071E+01
HW    2.4574131962650053E+01    3.0428670606481663E+01    3.0195844968677548E+01
OW    3.3337964965193130E+01    3.3167683638624816E+01    2.7651010286955785E+01
HW    3.2795352137849598E+01    3.2340005295535484E+01    2.7609586544883904E+01
HW    3.4122864629848458E+01    3.2872848039469176E+01    2.7151001308920033E+01
OW    2.4437988266113951E+01    3.4234877699609584E+01    2.9907252525159205E+01
HW    2.4969814305213802E+01    3.3455347676719335E+01    2.9608142917884834E+01
HW    2.5165254999817119E+01    3.4915023409445716E+01    2.9865830730937173E+01
OW    2.2688023992089423E+01    2.5118205304019259E+01    2.3349008647220124E+01
HW    2.1724900766185996E+01    2.5363023333329171E+01    2.3410678167050044E+01
HW    2.2693137687356728E+01    2.4897076411386291E+01    2.2373906346122336E+01
OW    1.9990866504345572E+01    2.7328395859947779E+01    2.8562015624344511E+01
HW    2.0790283246405124E+01    2.6918878414809861E+01    2.8957416533811614E+01
HW    2.0389744317320421E+01    2.7750141972334006E+01    2.7768243524675444E+01
OW    3.1723926122975243E+01    3.6891984415992148E+01    2.8995685449444604E+01
HW    3.2231659580396730E+01    3.7687064284908310E+01    2.8784398354305051E+01
HW    3.1679531209655380E+01    3.6454398730215402E+01    2.8114486603008679E+01
OW    2.9011875659814709E+01    3.2170204207638811E+01    2.8713367549625474E+01
HW    2.9201462109017505E+01    3.1221157110907178E+01    2.8526984936287274E+01
HW    2.9634655209616941E+01    3.2307372108090689E+01    2.9470554657506511E+01
OW    2.1724912327019940E+01    2.3701553178014198E+01    3.0723395874869755E+01
HW    2.1736570455024765E+01    2.2934886085303322E+01    3.1352241144158608E+01
HW    2.0777726226844830E+01    2.3952662103457151E+01    3.0811889845344410E+01
OW    3.0540205931639619E+01    2.4881988088867807E+01    2.8428486820472937E+01
HW    3.0896462260500705E+01    2.4028188892756646E+01    2.8778111317669591E+01
HW    3.0718484622058398E+01    2.4722623639385585E+01    2.7459135901923450E+01
OW    2.4948275128337674E+01    2.4135621461110851E+01    2.4289604710886881E+01
HW    2.5166349554564661E+01    2.4799478668937549E+01    2.4981772735357058E+01
HW    2.4086623183966932E+01    2.4527536678186415E+01    2.3980192712874505E+01
OW    3.4637557588928921E+01    2.3060512218694580E+01    2.5036256002741116E+01
HW    3.5128897461936631E+01    2.2233174909192584E+01    2.5255404392463880E+01
HW    3.4236603580634664E+01    2.3246895844771647E+01    2.5919091661762021E+01
OW    2.2187588095889311E+01    2.6171020323318825E+01    2.9660585722373575E+01
HW    2.3171516294136485E+01    2.6207594650936947E+01    2.9805098724953719E+01
HW    2.2011575610823435E+01    2.5293653322849927E+01    3.0078506253527930E+01
OW    2.6802481445271763E+01    2.7466767292121496E+01    2.8803119471096291E+01
HW    2.7532799621497908E+01    2.7757686790111251E+01    2.9397736196540901E+01
HW    2.7185854491465545E+01    2.6598266257488252E+01    2.8508894468538308E+01
OW    2.5556928053605432E+01    2.1784079023592771E+01    3.1887088971169110E+01
HW    2.5150085754890153E+01    2.2447756460346536E+01    3.1275854653784574E+01
HW    2.5180953619651717E+01    2.0963992211297057E+01    3.1490265901408417E+01
OW    3.1538015120087728E+01    3.2033526620128534E+01    2.4831355419269084E+01
HW    3.1124030367914298E+01    3.1986341785514401E+01    2.3940053895627003E+01
HW    3.0922988753620785E+01    3.2670529864580693E+01    2.5263002767607023E+01
OW    2.5661259486210195E+01    3.1183863286058070E+01    3.1547434456139083E+01
HW    2.5460751024791978E+01    3.1963055712218697E+01    3.2120202325512246E+01
HW    2.5969349230432751E+01    3.1668296072619977E+01    3.0737012128694314E+01
OW    3.3520898513751426E+01    2.3399071941753071E+01    2.7510158130498382E+01
HW    3.2780005150537853E+01    2.3188151927592980E+01    2.8124821861231940E+01
HW    3.3742734190705896E+01    2.4307045128504004E+01    2.7831526301802111E+01
OW    2.4363336844646092E+01    2.3442692802779511E+01    3.0076935406698908E+01
HW    2.4579546123241119E+01    2.4403262847293096E+01    3.0016168163935571E+01
HW    2.3391999298951983E+01    2.3506263901168786E+01    3.0230074309348545E+01
OW    2.5144031571721005E+01    3.3202978144341600E+01    3.3292750910630289E+01
HW    2.5824984096003135E+01    3.3840945102214960E+01    3.2952096236143461E+01
HW    2.4332311883675871E+01    3.3717337429241937E+01    3.3050343785538146E+01
OW    2.1101356119504203E+01    3.1100394491409130E+01    2.2247920862565898E+01
HW    2.0910995045794408E+01    3.1642906858151051E+01    2.1444828944858074E+01
HW    2.1153412835769309E+01    3.1825749350243502E+01    2.2917529695018448E+01
OW    3.5806115945431223E+01    3.4247150694027575E+01    2.9842731666139422E+01
HW    3.5638982850207299E+01    3.5126358336857464E+01    3.0221684840976192E+01
HW    3.6046683191669814E+01    3.4484374109756743E+01    2.8921579072105843E+01
OW    3.6653638341623044E+01    2.4206209600988718E+01    3.0065803348434819E+01
HW    3.6534677001576767E+01    2.3664222747488644E+01    3.0877253320439614E+01
HW    3.6268586109348576E+01    2.5058175934352448E+01    3.0389196886674270E+01
OW    2.8280188319592021E+01    2.1321908208092214E+01    2.7308538634082993E+01
HW    2.8351278280311167E+01    2.0451815520825704E+01    2.6851523862016943E+01
HW    2.7330549333385029E+01    2.1289988401993419E+01    2.7566291449118630E+01
OW    3.2653091968455001E+01    3.4454359371560898E+01    2.9949946604160584E+01
HW    3.3032296786833001E+01    3.4086542523037011E+01    2.9120046285057722E+01
HW    3.2298356114497174E+01    3.5306560492018328E+01    2.9614463495613062E+01
OW    3.4208181827299228E+01    3.1776938975999112E+01    2.5174599668709742E+01
HW    3.4134060274200358E+01    3.0793659688893001E+01    2.5281793281417031E+01
HW    3.3245056668080693E+01    3.1979757378738217E+01    2.5050017084847475E+01
OW    3.2843307929905755E+01    3.0674826796525387E+01    3.1092750249350228E+01
HW    3.3120233074859968E+01    3.0188775809855432E+01    3.0280863266193265E+01
HW    3.3649639586823255E+01    3.1218844580949465E+01    3.1239218528357249E+01
OW    3.0585216469266591E+01    2.8373070040597103E+01    2.4034664480903679E+01
HW    2.9734181469623266E+01    2.8861764264803917E+01    2.3982707366818072E+01
HW    3.1096464956170237E+01    2.8829627425308686E+01    2.3335305058805098E+01
OW    3.0245531598797704E+01    2.4304941358121290E+01    2.1046130168960310E+01
HW    2.9617299059746589E+01    2.4891841001102016E+01    2.1531848755670520E+01
HW    3.1061959917823998E+01    2.4851012441872051E+01    2.1110081396236275E+01
OW    3.6095433839849356E+01    2.9085380083575025E+01    2.9918298104598410E+01
HW    3.5233714990913569E+01    2.9319449176973229E+01    2.9491719245288657E+01
HW    3.6695456260045042E+01    2.9181134635507870E+01    2.9162961558458203E+01
OW    3.3730151557160283E+01    2.9114200354771178E+01    2.5089058686100564E+01
HW    3.3091279837998243E+01    2.8844946008944941E+01    2.4403078981038398E+01
HW    3.3397866994855455E+01    2.8572250562278583E+01    2.5849885967288486E+01
OW    3.3070764286762405E+01    2.6751486355460287E+01    3.2079789437644401E+01
HW    3.2711409764552542E+01    2.7565539783052699E+01    3.2509422989646673E+01
HW    3.2452950719212886E+01    2.6716449209345882E+01    3.1300443459223946E+01
OW    2.6475931171734075E+01    2.8791188355569258E+01    2.6453610302186817E+01
HW    2.5946944508316285E+01    2.8027261788325642E+01    2.6117821644724554E+01
HW    2.6681240847882705E+01    2.8436366536125213E+01    2.7356826730748747E+01
OW    2.6363713002571291E+01    3.2391134043612091E+01    2.9270560751045174E+01
HW    2.6058928385624306E+01    3.1986945507873020E+01    2.8425966624065047E+01
HW    2.7332031681082992E+01    3.2452126328427511E+01    2.9073760618544082E+01
OW    2.4789266633315084E+01    2.6137380200883239E+01    3.0101507669920423E+01
HW    2.5419556047270799E+01    2.6672878168914103E+01    2.9560310625763503E+01
HW    2.5201958793360813E+01    2.6275236195601892E+01    3.0992264857810831E+01
OW    3.4203935841337234E+01    3.5800391417375813E+01    3.1700930302400426E+01
HW    3.3442492274894086E+01    3.6276081471485249E+01    3.2104401857450974E+01
HW    3.3697047958582857E+01    3.5174608356536481E+01    3.1125354141580413E+01
OW    2.6707358427237775E+01    3.2327150906184144E+01    3.5394272172602292E+01
HW    2.6469619396263496E+01    3.1384883823735397E+01    3.5538155388069477E+01
HW    2.6018278835325063E+01    3.2583054219428952E+01    3.4744366341367119E+01
OW    3.2545985228021301E+01    2.9207748998664393E+01    2.2280496225186781E+01
HW    3.3071131857604044E+01    2.8598778027385187E+01    2.1697166930484528E+01
HW    3.3224874397411860E+01    2.9927255466072339E+01    2.2373778027824414E+01
OW    2.5013569277636588E+01    2.9079566105808368E+01    3.3145329475783498E+01
HW    2.5146535993316729E+01    2.9791573436363461E+01    3.2482122472780681E+01
HW    2.4045465366595327E+01    2.8954523286356338E+01    3.3084592792072904E+01
OW    2.9817385311080724E+01    3.3543358191589675E+01    2.6377094322973438E+01
HW    3.0382972905671679E+01    3.4317982109517864E+01    2.6588046137228709E+01
HW    2.9531317838191477E+01    3.3286614446881558E+01    2.7280630874339671E+01
OW    2.8473489892182076E+01    3.4282395900280740E+01    3.4650212932531957E+01
HW    2.7914351588358734E+01    3.4683219494829942E+01    3.3958622740696796E+01
HW    2.7814301765934882E+01    3.3727627479295982E+01    3.5116935430755667E+01
OW    3.6497666646769439E+01    1.8198654593882900E+01    1.9987946069034653E+01
HW    3.6197604311799154E+01    1.8712255070683916E+01    2.0783547280785410E+01
HW    3.7460129903582931E+01    1.8283405512703929E+01    2.0090949325183075E+01
OW    2.2918674998089330E+01    2.7674339495733673E+01    2.4547064812250312E+01
HW    2.3057963208087461E+01    2.8362253479794813E+01    2.3848762448500079E+01
HW    2.2830984451820228E+01    2.6879933519773992E+01    2.3983157916644508E+01
OW    2.0230362806528134E+01    3.0672823930422798E+01    3.0322710981986482E+01
HW    2.0087806383456090E+01    3.0710255304711307E+01    2.9347309655715875E+01
HW    2.0955315310194582E+01    3.0005250995534091E+01    3.0353593967364244E+01
OW    2.1535335190964243E+01    3.2332652988306663E+01    2.6607401479899671E+01
HW    2.1418092847769852E+01    3.2543879552557684E+01    2.5649337963921166E+01
HW    2.2480157091771250E+01    3.2111925683743046E+01    2.6625647480769452E+01
OW    3.6957850728344525E+01    3.2836520265015373E+01    3.3388486746017897E+01
HW    3.6362508459428767E+01    3.2722919309404872E+01    3.2613297568779572E+01
HW    3.7303969208678431E+01    3.1925780559843947E+01    3.3466244113085637E+01
OW    3.1772836117928481E+01    3.6307571087916472E+01    3.2991247950741027E+01
HW    3.2290353630286710E+01    3.6097871217068935E+01    3.3801905804906312E+01
HW    3.1262492733563729E+01    3.7072728446311267E+01    3.3287345300209623E+01
OW    3.3857552173808301E+01    3.5635880389702216E+01    2.3258333368450756E+01
HW    3.3398329155705980E+01    3.6490798846035339E+01    2.3291758914105202E+01
HW    3.3160025124587619E+01    3.5095353579222156E+01    2.2794683327672303E+01
OW    2.6419398314155455E+01    3.5225356959465124E+01    2.6958100989637476E+01
HW    2.6071224909658731E+01    3.4458628591563816E+01    2.6448901404392618E+01
HW    2.6673529235678199E+01    3.5821229093028840E+01    2.6240140549880540E+01
OW    3.1934259556360281E+01    3.4401509956481796E+01    2.1927597876613259E+01
HW    3.0958097172694110E+01    3.4541168817430879E+01    2.1903154570999469E+01
HW    3.2011543756901133E+01    3.3724743846632521E+01    2.1215839773767712E+01
OW    3.1903764604287026E+01    3.5281837897736999E+01    2.6869747860496815E+01
HW    3.2388678980607800E+01    3.4451275238293327E+01    2.7119473123173709E+01
HW    3.2666665937108135E+01    3.5748464530223288E+01    2.6430028916948604E+01
OW    3.6647905996993956E+01    2.5463858060259948E+01    3.3926321367479844E+01
HW    3.6609496606997162E+01    2.6442783256907994E+01    3.4042779669812241E+01
HW    3.5685400275384538E+01    2.5276289907413961E+01    3.3853823532192429E+01
OW    2.0819332432428443E+01    3.2709576303993828E+01    3.2030070017071210E+01
HW    2.0544901327179684E+01    3.2060277148448719E+01    3.1337803088223190E+01
HW    2.1489936760241207E+01    3.2152526853987290E+01    3.2502892647590350E+01
OW    2.5887375766935595E+01    2.1743074002085695E+01    2.8617681442546196E+01
HW    2.5182774668673314E+01    2.2391037373670102E+01    2.8868010704893873E+01
HW    2.6644476916634808E+01    2.2158632086906614E+01    2.9100074266431022E+01
OW    2.9743868873368751E+01    2.3661093334798178E+01    3.3735622287091289E+01
HW    2.9029034876008577E+01    2.3934304405168948E+01    3.4363508000944385E+01
HW    2.9241415359333917E+01    2.2974112715711517E+01    3.3228068807225341E+01
OW    3.4086122666137946E+01    2.4672352089160885E+01    3.3446715946970770E+01
HW    3.3361477365875963E+01    2.4504925885217649E+01    3.4089863377675336E+01
HW    3.3662658293036614E+01    2.5391542630476657E+01    3.2913762875616044E+01
OW    3.1944137218830484E+01    2.6753403359346908E+01    3.5866488723057209E+01
HW    3.2025624545959211E+01    2.5781111381919455E+01    3.5732627053861165E+01
HW    3.2867544121184771E+01    2.6991324369706135E+01    3.6040821618324927E+01
OW    2.8369338380242393E+01    2.0973275888397449E+01    2.3368035225353619E+01
HW    2.7581457927398610E+01    2.1187034512344752E+01    2.3922198883259536E+01
HW    2.8408350434228606E+01    2.0000170258310700E+01    2.3506827219181314E+01
OW    2.8095031049560244E+01    2.2921105362746669E+01    2.9616416055986168E+01
HW    2.8011822163536358E+01    2.3825500364995445E+01    2.9239583530108661E+01
HW    2.8577587821082485E+01    2.2474938456093348E+01    2.8888934999744336E+01
OW    2.5073312995587973E+01    2.6551340716354069E+01    2.5763100031007994E+01
HW    2.4518415418282860E+01    2.6065728826987172E+01    2.6438978090558734E+01
HW    2.4330873654010553E+01    2.7051038996305451E+01    2.5329716823302991E+01
OW    3.1456134343832204E+01    2.5774051203402671E+01    2.3762782752026705E+01
HW    3.1150247905558405E+01    2.6704124506610466E+01    2.3756740989908973E+01
HW    3.1956157063908247E+01    2.5747621810247381E+01    2.2916719914221314E+01
OW    2.7646562079975272E+01    2.7135964497956344E+01    3.5332191420688574E+01
HW    2.7640249604120314E+01    2.6154603188764362E+01    3.5365687145569581E+01
HW    2.8538044236772141E+01    2.7285427121146142E+01    3.4944388559465914E+01
OW    3.0815228387255537E+01    2.4360094194176380E+01    2.5896562004178993E+01
HW    3.1039606626928904E+01    2.4889845268500309E+01    2.5085334619057342E+01
HW    3.1192062889226381E+01    2.3494755055576132E+01    2.5618698563836421E+01
OW    2.2962567055914011E+01    2.3518490345173543E+01    3.4388131053761619E+01
HW    2.2083697280972377E+01    2.3792825029487371E+01    3.4037354429408452E+01
HW    2.2719309183682594E+01    2.2619504046749327E+01    3.4724597743019075E+01
OW    2.0315166600572031E+01    2.1445508901697888E+01    2.7817128330331737E+01
HW    1.9772532382801788E+01    2.2030654533183796E+01    2.8389452868427963E+01
HW    2.0916269050062724E+01    2.1057500770626167E+01    2.8495802159948596E+01
OW    2.0131880670233784E+01    2.4823124561265900E+01    1.9302408254357321E+01
HW    2.0192333749958078E+01    2.5679881268848803E+01    1.9793321986656728E+01
HW    1.9459652922004981E+01    2.5087132371321406E+01    1.8627502525190902E+01
OW    3.1366677711547272E+01    2.6885432369043368E+01    3.0039425394772955E+01
HW    3.0523390330489267E+01    2.7376145121758245E+01    3.0110515705308345E+01
HW    3.1089848714189834E+01    2.6154929394044917E+01    2.9439001490896569E+01
OW    2.7921289895360911E+01    2.5179218144962430E+01    2.8101044702954947E+01
HW    2.7813053936296630E+01    2.4678666777997840E+01    2.7260742990464962E+01
HW    2.8907326306733857E+01    2.5188057585965424E+01    2.8162154817179516E+01
OW    2.3270619324780675E+01    2.5226497347490220E+01    2.7182470278899260E+01
HW    2.2741800239470386E+01    2.5553611051111133E+01    2.7931835953062080E+01
HW    2.2696547486616218E+01    2.4490371186739832E+01    2.6866941422814822E+01
OW    2.8288100922427031E+01    2.5701618828750416E+01    2.2280062549533298E+01
HW    2.8220422785285180E+01    2.5974550361994311E+01    2.3225937725179172E+01
HW    2.8017683781194808E+01    2.6543004291684646E+01    2.1846406093133023E+01
OW    3.1571886720288624E+01    2.2562213561794159E+01    2.9291638852150481E+01
HW    3.1675653853138318E+01    2.2896062089927234E+01    3.0227686111255174E+01
HW    3.1128084924832166E+01    2.1707194506641581E+01    2.9499137423324559E+01
OW    2.7425717090356809E+01    2.7761184024050348E+01    2.0742929666312786E+01
HW    2.6747247502780009E+01    2.7255444094301080E+01    2.0233016254031032E+01
HW    2.8127604065782265E+01    2.7828485778973253E+01    2.0052038414684972E+01
OW    3.5073841409724608E+01    1.9320198152886839E+01    3.4734528373847340E+01
HW    3.5659912586349670E+01    1.8532043994517391E+01    3.4753170681653771E+01
HW    3.5473864205202297E+01    1.9792013154471384E+01    3.3963310710868456E+01
OW    2.2725691008028164E+01    3.1366606189118940E+01    3.3307940645571527E+01
HW    2.2634769017246132E+01    3.0460474976869584E+01    3.3641284047679029E+01
HW    2.3564538360554813E+01    3.1651988446486509E+01    3.3690193193042198E+01
OW    2.8893289633844216E+01    2.8054555337290473E+01    3.0434587837052806E+01
HW    2.8776730981609987E+01    2.7327538175799205E+01    3.1101537746333374E+01
HW    2.8683907104557974E+01    2.8822078076083038E+01    3.1040045768259223E+01
OW    2.1622283136535085E+01    2.3251192450561561E+01    2.6310021908673981E+01
HW    2.1237726047493204E+01    2.2502531727941072E+01    2.6828901474198918E+01
HW    2.1920826337955965E+01    2.2755743718774312E+01    2.5514291590692803E+01
OW    2.5866385016043388E+01    2.6533912006465982E+01    3.2519326283159820E+01
HW    2.5835015351297386E+01    2.7456553110901549E+01    3.2852525971391906E+01
HW    2.6831263414034375E+01    2.6358930708304683E+01    3.2588333045866342E+01
OW    2.5008065194357084E+01    3.1506546163275047E+01    2.3343393493037524E+01
HW    2.4344672499743176E+01    3.0779905905409183E+01    2.3254619896949041E+01
HW    2.5742084905470275E+01    3.1109646969530729E+01    2.2818715636168008E+01
OW    3.3726379459949506E+01    2.9595791386682198E+01    2.8752346521821160E+01
HW    3.3134915480647024E+01    3.0208914602525891E+01    2.8240340690056872E+01
HW    3.3463836572073895E+01    2.8752866899355563E+01    2.8295175558394355E+01
OW    3.0749984619204870E+01    2.2094052017840994E+01    2.2577876088661817E+01
HW    2.9864827269366057E+01    2.1780512442316731E+01    2.2869936512476215E+01
HW    3.0483588731592100E+01    2.2876592168465404E+01    2.2041411987046676E+01
OW    3.1316908851323753E+01    2.9778669721605073E+01    3.6113101851393630E+01
HW    3.1084130339654621E+01    2.8846047213243523E+01    3.6230599473963643E+01
HW    3.0510478930611402E+01    3.0132499774469530E+01    3.5693613974371914E+01
OW    3.2657361185274162E+01    2.5635338100319750E+01    2.1340573794950704E+01
HW    3.3221932250161679E+01    2.6389966835680831E+01    2.1047755597026434E+01
HW    3.3239572156100216E+01    2.4886792719009339E+01    2.1063769821246296E+01
OW    2.5216324722697077E+01    3.1078482480530369E+01    2.7157031743829762E+01
HW    2.5661986429619681E+01    3.0251990235714640E+01    2.6844084738863625E+01
HW    2.4712129728969664E+01    3.0689093511577308E+01    2.7921934262140276E+01
OW    2.9835353742373076E+01    3.1952519419687007E+01    2.2597247066351965E+01
HW    2.9638463896445156E+01    3.2786684037655910E+01    2.2103533408973430E+01
HW    2.9125056136772358E+01    3.2013106154833260E+01    2.3281583299714583E+01
OW    2.2283707291499436E+01    2.8563291880901058E+01    3.3349801761001032E+01
HW    2.1327595364342994E+01    2.8451734558248031E+01    3.3578153548106883E+01
HW    2.2607574112072911E+01    2.7662228501457740E+01    3.3602879923450480E+01
OW    2.6545197758408996E+01    2.9570513617350624E+01    3.5283032198063658E+01
HW    2.5930446366150370E+01    2.9350081026582991E+01    3.4538746812063501E+01
HW    2.6863439378091297E+01    2.8649508623866197E+01    3.5480162558386255E+01
OW    3.0659640463649158E+01    3.2830788198601603E+01    3.3895350206934481E+01
HW    3.0258765979611230E+01    3.1982131760166457E+01    3.4170533176272230E+01
HW    2.9929941361818372E+01    3.3448081389747109E+01    3.4139389216683924E+01
OW    3.4093673114514026E+01    2.7823985689400068E+01    2.0532223812823116E+01
HW    3.3980214461967215E+01    2.7795975708741150E+01    1.9543821404616867E+01
HW    3.4951893057251596E+01    2.8328521468328248E+01    2.0548006863099793E+01
OW    3.6403852728633005E+01    3.0152745492044492E+01    3.2376455981036393E+01
HW    3.5793982905093749E+01    3.0877662590484608E+01    3.2109948370861055E+01
HW    3.6446907542467684E+01    2.9663627955239591E+01    3.1518844618033519E+01
OW    3.6307538402044756E+01    3.3495333386597004E+01    2.5101811683476448E+01
HW    3.5596666297675107E+01    3.2813345402827778E+01    2.5123962310975546E+01
HW    3.6336506904565255E+01    3.3659792625231987E+01    2.4127746588854215E+01
OW    3.1881895014812304E+01    3.0944475924889883E+01    2.7345380817294490E+01
HW    3.1638202561995691E+01    3.1099244067226916E+01    2.6406385410757398E+01
HW    3.1072156929647118E+01    3.0471612855487034E+01    2.7651695128569404E+01
OW    2.8148063686270284E+01    3.2279720267412010E+01    2.4705541827230185E+01
HW    2.8713096105293431E+01    3.2798214886443844E+01    2.5332917892938987E+01
HW    2.7272989597415137E+01    3.2677316976714827E+01    2.4924788753778881E+01
OW    2.0360336061653182E+01    2.7263528581904755E+01    2.0459370216340687E+01
HW    2.1338244213553271E+01    2.7393365535839578E+01    2.0542556710525865E+01
HW    2.0123829004337885E+01    2.8145068203907577E+01    2.0082645944880792E+01
OW    2.8131295044565405E+01    2.9611970927738945E+01    2.4333546836393637E+01
HW    2.8147383940928698E+01    3.0563273802005348E+01    2.4598279716740031E+01
HW    2.7611342660482887E+01    2.9246517330378747E+01    2.5087012235785433E+01
OW    2.9738570915595648E+01    3.4824429225427750E+01    3.1734688471031365E+01
HW    3.0511599030182886E+01    3.5195353493644646E+01    3.2217521846029655E+01
HW    3.0093815342427106E+01    3.3933604308464020E+01    3.1513045032791059E+01
OW    2.3873698647268363E+01    2.0084576692756528E+01    2.4970676162439709E+01
HW    2.3214427456007691E+01    1.9415237331265594E+01    2.5267851564745026E+01
HW    2.3258770783223088E+01    2.0755835837205534E+01    2.4590353413467088E+01
OW    3.0890386117933140E+01    3.2551516451744853E+01    3.0623247220090338E+01
HW    3.1469492526904133E+01    3.1807441441581997E+01    3.0910952288243600E+01
HW    3.1588107438969640E+01    3.3221643429786297E+01    3.0418073452849463E+01
OW    3.4464945496315245E+01    3.2767798909263590E+01    2.0463401273761111E+01
HW    3.4304883877072541E+01    3.2075556604592947E+01    2.1149334650971284E+01
HW    3.3586747861299628E+01    3.2757872050699859E+01    2.0018695321177717E+01
OW    3.3203641064935425E+01    3.3367111247139661E+01    3.3375774663802147E+01
HW    3.3196236010007773E+01    3.4220626320553784E+01    3.3865857081134607E+01
HW    3.2244817562816657E+01    3.3121173446788781E+01    3.3497915784128807E+01
OW    2.2209026302038680E+01    2.1021736632078248E+01    3.4923017041442840E+01
HW    2.1542198462696426E+01    2.0482789001460027E+01    3.5378851728028891E+01
HW    2.3026419369666645E+01    2.0499034635825517E+01    3.5150280501525721E+01
OW    3.4471526063905401E+01    3.1054918214038779E+01    2.2545144098153294E+01
HW    3.4423340815420374E+01    3.1453669422650314E+01    2.3443151764170093E+01
HW    3.5400883933710773E+01    3.0717763634971757E+01    2.2573205926664684E+01
OW    2.0122900748988513E+01    3.7059629802160309E+01    3.3325869183451353E+01
HW    2.0463326227208086E+01    3.6891984302126012E+01    3.4212961875631258E+01
HW    1.9248550499227221E+01    3.6614633863397295E+01    3.3368582325904022E+01
OW    2.6648679376003145E+01    3.4970562832686056E+01    2.1115952176768214E+01
HW    2.6236954059744807E+01    3.5323982610618778E+01    2.0295651713791891E+01
HW    2.5857666361758323E+01    3.4538442583000624E+01    2.1516911012807149E+01
OW    2.3235213754822933E+01    2.9541084506961681E+01    2.2650702395999655E+01
HW    2.2410726217213622E+01    3.0060851177144048E+01    2.2471012347233529E+01
HW    2.3606766169625708E+01    2.9527009674360141E+01    2.1735917157486757E+01
OW    3.1691412020973544E+01    2.3323187862598175E+01    3.1812761830439388E+01
HW    3.2359917363977182E+01    2.2799406306437941E+01    3.2304621077190056E+01
HW    3.1065332600182330E+01    2.3534870713963056E+01    3.2533508294150522E+01
OW    3.5471339646033833E+01    2.2165773522767321E+01    2.2547859958817305E+01
HW    3.5089794021634248E+01    2.2749183901032143E+01    2.1857143399572681E+01
HW    3.5197117226097156E+01    2.2648513822454987E+01    2.3354426272973036E+01
OW    2.9261383810651814E+01    3.4354888394217546E+01    2.1389229622731559E+01
HW    2.9324231687276523E+01    3.4282429220390043E+01    2.0410825544331313E+01
HW    2.8305288860939346E+01    3.4621604966250146E+01    2.1456202972039272E+01
OW    2.7726291669068040E+01    2.6065649197312940E+01    2.4901765687226867E+01
HW    2.6838617972013697E+01    2.6299348785400984E+01    2.5240662833830612E+01
HW    2.7793679419301149E+01    2.5135987586732966E+01    2.5219888974053656E+01
OW    2.8641447905649969E+01    2.6175409182327012E+01    3.2376303398610659E+01
HW    2.9172308275450842E+01    2.6697508313531934E+01    3.3032805391355211E+01
HW    2.9047615872862760E+01    2.5296643823086196E+01    3.2507222623603631E+01
OW    3.2011391875483142E+01    2.2078981939579037E+01    2.4945984974736550E+01
HW    3.1575121407091324E+01    2.2040751818216449E+01    2.4060487200312139E+01
HW    3.2876470394346192E+01    2.2458755681358333E+01    2.4690446552652489E+01