 # Version information for this restart file 
 # current date 2019-08-12 14:07:43.437
 # current working dir /Users/sllabres/Work/github_repos/CP2K_tutorials_for_biological_simulations/AMBER_NMA/section2/CP2K
 # Program compiled at                              Wed Apr 10 16:53:40 BST 2019
 # Program compiled on                                              S4A-Q177HV29
 # Program compiled for                           Darwin-IntelMacintosh-gfortran
 # Source code revision number                                         svn:18091
 &GLOBAL
   PRINT_LEVEL  LOW
   PROJECT_NAME NPT
   RUN_TYPE  MD
 &END GLOBAL
 &MOTION
   &MD
     ENSEMBLE  NPT_I
     STEPS  20000
     TIMESTEP     4.9999999999999994E-01
     STEP_START_VAL  20000
     TIME_START_VAL     1.0000000000003954E+04
     ECONS_START_VAL    -2.2250134063544969E+01
     TEMPERATURE     2.9800000000000000E+02
     &BAROSTAT
       PRESSURE     1.0000000000000000E+00
       TIMECON     9.9999999999999986E+01
       &VELOCITY
             1.3862542678869561E-06
       &END VELOCITY
       &MASS
             2.1193572450320572E+08
       &END MASS
       &THERMOSTAT
         TYPE  CSVR
         &CSVR
           TIMECON     9.6755373060191385E-01
           &THERMOSTAT_ENERGY
                 1.8960357825087135E-01
           &END THERMOSTAT_ENERGY
           &RNG_INIT
Wiener process for Thermostat # 1        1 F T F   1.9363248008061223E-01         980101228.0        2426659048.0        1888507207.0        2656091836.0        3450664206.0        1592160476.0             12345.0             12345.0             12345.0             12345.0             12345.0             12345.0             12345.0             12345.0             12345.0             12345.0             12345.0             12345.0
           &END RNG_INIT
         &END CSVR
       &END THERMOSTAT
     &END BAROSTAT
     &THERMOSTAT
       TYPE  CSVR
       REGION  GLOBAL
       &CSVR
         TIMECON     9.9999999999999982E+00
         &THERMOSTAT_ENERGY
              -6.5973831025632546E+00
         &END THERMOSTAT_ENERGY
         &RNG_INIT
Wiener process for Thermostat # 1        1 F T F   1.1209735702496255E+00        1472120562.0        1933660239.0        3504507829.0         578818988.0        2523307492.0         528828074.0             12345.0             12345.0             12345.0             12345.0             12345.0             12345.0             12345.0             12345.0             12345.0             12345.0             12345.0             12345.0
         &END RNG_INIT
       &END CSVR
     &END THERMOSTAT
     &AVERAGES  T
       &RESTART_AVERAGES
         ITIMES_START  1
         AVECPU     4.1001799129247751E-01
         AVEHUGONIOT     0.0000000000000000E+00
         AVETEMP_BARO     4.3919279211363749E+02
         AVEPOT    -2.1937631173474220E+01
         AVEKIN     6.1911819300588009E+00
         AVETEMP     2.9763542575434286E+02
         AVEKIN_QM     0.0000000000000000E+00
         AVETEMP_QM     0.0000000000000000E+00
         AVEVOL     3.1877634348189010E+05
         AVECELL_A     6.9054647065175416E+01
         AVECELL_B     6.7553273791203011E+01
         AVECELL_C     6.7997364020786875E+01
         AVEALPHA     9.0000000000000000E+01
         AVEBETA     9.0000000000000000E+01
         AVEGAMMA     9.0000000000000000E+01
         AVE_ECONS     5.7382714281695035E+00
         AVE_PRESS     5.1010893421112158E+00
         AVE_PXX     2.1287433006007216E+01
       &END RESTART_AVERAGES
     &END AVERAGES
   &END MD
   &PRINT
     &TRAJECTORY  SILENT
       FORMAT  DCD
       &EACH
         MD  40
       &END EACH
     &END TRAJECTORY
     &CELL  SILENT
       &EACH
         MD  100
       &END EACH
     &END CELL
     &RESTART  SILENT
       &EACH
         MD  25000
       &END EACH
     &END RESTART
     &RESTART_HISTORY  SILENT
       &EACH
         MD  5000
       &END EACH
     &END RESTART_HISTORY
   &END PRINT
 &END MOTION
 &FORCE_EVAL
   METHOD  FIST
   STRESS_TENSOR  ANALYTICAL
   &MM
     &FORCEFIELD
       PARMTYPE  AMBER
       PARM_FILE_NAME NMA.prmtop
       &SPLINE
         RCUT_NB     1.0000000000000002E+01
         EMAX_SPLINE     1.0000000000000000E+08
       &END SPLINE
     &END FORCEFIELD
     &POISSON
       &EWALD
         EWALD_TYPE  SPME
         ALPHA     4.0000000000000008E-01
         GMAX  80
       &END EWALD
     &END POISSON
   &END MM
   &SUBSYS
     &CELL
       A     3.5688459876422009E+01    0.0000000000000000E+00    0.0000000000000000E+00
       B     0.0000000000000000E+00    3.4912528029328385E+01    0.0000000000000000E+00
       C     0.0000000000000000E+00    0.0000000000000000E+00    3.5142040408489308E+01
       MULTIPLE_UNIT_CELL  1 1 1
     &END CELL
     &COORD
N    2.2116002633916715E+01    2.1860556752751833E+01    1.5627635108909541E+01
H    2.2772252307735574E+01    2.2482633934385593E+01    1.5174143284355127E+01
CT2    2.1259270460201247E+01    2.2156042872037244E+01    1.6815821288956055E+01
H1    2.0336556953147365E+01    2.2615916935043401E+01    1.6543077689953204E+01
H1    2.0995229605729943E+01    2.1233018907715820E+01    1.7339466995586509E+01
H1    2.1841148396980977E+01    2.2887624867146698E+01    1.7454583321081213E+01
HC    1.6984089738480975E+01    1.6295649838375635E+01    1.3903123354763078E+01
CT1    1.6452952647604580E+01    1.7153111744678320E+01    1.3542594727885218E+01
HC    1.5838617261212656E+01    1.7424150393228846E+01    1.4392276140657126E+01
HC    1.5747436077187075E+01    1.6752567980401739E+01    1.2777133901079777E+01
C    1.7331745466850695E+01    1.8332718374681335E+01    1.3199335140246424E+01
O    1.6775373482162586E+01    1.9447648454117136E+01    1.3357117460850173E+01
OW    3.0652024917573030E+01    2.0003623474369803E+01    2.2490931970306804E+01
HW    3.0647921127038916E+01    2.0367599748983693E+01    2.1578928579885009E+01
HW    3.1539722853671680E+01    2.0153319793845874E+01    2.2811858642453835E+01
OW    3.2229914772234878E+01    2.3174343319856757E+01    2.2928885449692295E+01
HW    3.2395920469662407E+01    2.2238943495077809E+01    2.2741952345947290E+01
HW    3.2992294735871596E+01    2.3610121836870608E+01    2.2582177928253344E+01
OW    1.5323246270911744E+01    3.5185103883564352E+01    2.1018980061226188E+01
HW    1.4625756776881202E+01    3.4640334469316677E+01    2.0539110180590072E+01
HW    1.5709477528742482E+01    3.4407946756142586E+01    2.1482803656012624E+01
OW    2.9907532474793086E+01    2.5947084990389030E+01    3.0382454282926215E+01
HW    3.0312403440498308E+01    2.6861075522542951E+01    3.0555097849674322E+01
HW    3.0281305966689626E+01    2.5865699826676575E+01    2.9459698134092555E+01
OW    2.2242932882699023E+01    3.4741882149325640E+01    2.6576815975110438E+01
HW    2.2582490914139470E+01    3.3839699451322367E+01    2.6774985734868139E+01
HW    2.1407902032154379E+01    3.4723738530383010E+01    2.7101968186394753E+01
OW    1.8012129932578649E+01    2.4301226806764689E+01    2.5352027097212840E+01
HW    1.8854217457400090E+01    2.3840097600432266E+01    2.5536665420032609E+01
HW    1.8067286146361379E+01    2.4405684941672213E+01    2.4380364415555434E+01
OW    1.5037244688953113E+01    2.4273829291013232E+01    2.2559525734812684E+01
HW    1.4800001073738912E+01    2.3303014889302435E+01    2.2628450681953609E+01
HW    1.5934105959144560E+01    2.4304963662967868E+01    2.2310700725758881E+01
OW    3.1394211260243711E+01    2.8008813919220948E+01    3.1420397124035542E+01
HW    3.0915840158861453E+01    2.8818437355047067E+01    3.1174557435493156E+01
HW    3.2338654927952881E+01    2.8405047623129100E+01    3.1452128283838313E+01
OW    2.2414428589116369E+01    2.9339783299743431E+01    2.7166382338271880E+01
HW    2.2276682817163849E+01    2.8430282821131886E+01    2.6785778950221527E+01
HW    2.3144217876989643E+01    2.9154839910313616E+01    2.7754945391629089E+01
OW    2.2062722459261014E+01    2.4992579346583454E+01    2.6392382947984011E+01
HW    2.1140428386511818E+01    2.4639269395995793E+01    2.6510429078608325E+01
HW    2.2433564200090725E+01    2.4318062499969649E+01    2.5757594760039655E+01
OW    2.6748310832249288E+01    2.2932876211529877E+01    2.4639447417584922E+01
HW    2.7213231311419193E+01    2.2082128088280783E+01    2.4521017649478040E+01
HW    2.6662145225848295E+01    2.3366734997142437E+01    2.3828627671873491E+01
OW    2.0187254515095830E+01    2.0587103005261742E+01    2.3934933049339065E+01
HW    1.9220554844797274E+01    2.0847845905995769E+01    2.4083726695540769E+01
HW    2.0550926397847757E+01    2.0703325670909170E+01    2.4804950735442137E+01
OW    2.9954312334001266E+01    1.6743012158975052E+01    1.9659420891864350E+01
HW    3.0038301362376501E+01    1.7429728327070599E+01    1.9001807599618051E+01
HW    2.9867134630023418E+01    1.5935270138483776E+01    1.9182872019227393E+01
OW    2.2919756330390172E+01    2.7014865245094974E+01    2.3435572758258424E+01
HW    2.3303974584960663E+01    2.6682907646359549E+01    2.4235794011969922E+01
HW    2.3542184213703148E+01    2.7758323710814107E+01    2.3196667794781671E+01
OW    2.5444946313258217E+01    2.0497959398871355E+01    2.1420130617570848E+01
HW    2.4819807358655680E+01    2.0163183686636536E+01    2.2072778121903092E+01
HW    2.5141291974201124E+01    2.1470363532768307E+01    2.1384148044371230E+01
OW    2.2162080687907125E+01    2.2200516444777396E+01    3.6714144263962709E+01
HW    2.1188341472839372E+01    2.2304107222806593E+01    3.6926470784503579E+01
HW    2.2432586971369371E+01    2.1758959913335332E+01    3.7541124470575205E+01
OW    2.8995085370098224E+01    2.9583719668495036E+01    1.9521980712727476E+01
HW    2.8495587783414077E+01    3.0462396546764460E+01    1.9624816514077942E+01
HW    2.9429843843702454E+01    2.9725430454923860E+01    2.0451529133884563E+01
OW    2.4539802764017331E+01    2.7705208187986720E+01    2.8130029568238619E+01
HW    2.5354770657682803E+01    2.7184386385616548E+01    2.7971788235548182E+01
HW    2.4202089120955165E+01    2.7318549022436233E+01    2.8944116607295395E+01
OW    3.0606335411657369E+01    2.1511629312522164E+01    2.6929533345120710E+01
HW    3.0877298857747217E+01    2.2492862351089343E+01    2.6863383004232684E+01
HW    2.9945005689276229E+01    2.1496783863570776E+01    2.6224358785205318E+01
OW    1.9669790631644663E+01    2.2848233329118184E+01    2.9219320572203166E+01
HW    1.8850264742148177E+01    2.2743470037365096E+01    2.9744633608100806E+01
HW    2.0327059418979452E+01    2.3001275994161791E+01    2.9937292283886798E+01
OW    2.5054138544283841E+01    2.8594533453828245E+01    3.1961175076323549E+01
HW    2.5800914836173501E+01    2.8308601273965220E+01    3.1472044789236818E+01
HW    2.4359773278529996E+01    2.8633857296143816E+01    3.1293393150414712E+01
OW    1.8615242240292602E+01    3.2030354573942141E+01    1.7332318407678564E+01
HW    1.8909283372492258E+01    3.2676435584277897E+01    1.8024623373062859E+01
HW    1.7676276145931343E+01    3.2289246741840437E+01    1.7372570303685748E+01
OW    2.8828862178888940E+01    3.0954810840676675E+01    2.7104815233503931E+01
HW    2.8111562180278362E+01    3.0875342962408840E+01    2.7729446881601000E+01
HW    2.8424710428562591E+01    3.1355040987891076E+01    2.6324929867418504E+01
OW    3.4416890837350984E+01    2.4422288874305508E+01    2.5559975792912059E+01
HW    3.5041062631492714E+01    2.5070238053677215E+01    2.5990765565656396E+01
HW    3.4610481994870497E+01    2.4643320790135167E+01    2.4604641342298155E+01
OW    2.3317056793473508E+01    2.0229431910608472E+01    2.3401194456625124E+01
HW    2.2540848533980327E+01    2.0648144272689994E+01    2.2925218818314384E+01
HW    2.2832679441101174E+01    1.9445953473934832E+01    2.3733280004326005E+01
OW    2.3506926249117040E+01    3.2170160053869033E+01    2.7277738240198449E+01
HW    2.3577056814026477E+01    3.1528660484892441E+01    2.6537653562357061E+01
HW    2.4477086651365937E+01    3.2469911453492379E+01    2.7325697659698022E+01
OW    3.2347032776324760E+01    2.9972177974650265E+01    2.9069883095871567E+01
HW    3.2083118616604587E+01    3.0253403277584614E+01    2.8218587969667620E+01
HW    3.1548311292268096E+01    3.0168797540733156E+01    2.9621069356296147E+01
OW    2.6346511418758940E+01    2.5583749133371541E+01    2.8410619092350721E+01
HW    2.6948883210999188E+01    2.4800407400973743E+01    2.8281075103842916E+01
HW    2.5543017881317954E+01    2.5233388964340232E+01    2.8004169261657502E+01
OW    3.0639662335594085E+01    2.5365594712973419E+01    2.2832889327971401E+01
HW    3.1348927297009165E+01    2.4633741245585021E+01    2.2849880681847093E+01
HW    3.0136093156111848E+01    2.4942005592449046E+01    2.2084731293268725E+01
OW    3.4308386981905429E+01    2.0902839006012822E+01    2.0055762137690778E+01
HW    3.4881925770846536E+01    2.1612857858502164E+01    2.0355945686546004E+01
HW    3.3711331393285818E+01    2.0787636992075104E+01    2.0843206831753736E+01
OW    3.3662217608296103E+01    2.4886954166987049E+01    3.0491522587436418E+01
HW    3.2909266688626076E+01    2.5034447085578190E+01    2.9890708889786850E+01
HW    3.3244251114368716E+01    2.4696921608916675E+01    3.1326917677999838E+01
OW    3.0293948784465631E+01    2.8765863601921144E+01    2.6163744828853957E+01
HW    2.9863916663210031E+01    2.9428015468296749E+01    2.6706154107179369E+01
HW    3.0932863376661885E+01    2.9242274319160849E+01    2.5642555282352518E+01
OW    3.4073198476419343E+01    1.5591900209304139E+01    2.9905841223662676E+01
HW    3.4524395023713872E+01    1.4736722721955553E+01    2.9764842981609380E+01
HW    3.4101783875943440E+01    1.5921562830010171E+01    2.9014220345148058E+01
OW    2.8679967386991418E+01    2.6444796483821712E+01    2.6456281003216247E+01
HW    2.9098148694321793E+01    2.7315685202050734E+01    2.6614459442331661E+01
HW    2.8149084884133579E+01    2.6327015125350464E+01    2.7229389320355825E+01
OW    2.6117677412044600E+01    2.5100514626330128E+01    2.2399583342667501E+01
HW    2.5924195747020615E+01    2.5684078072563938E+01    2.1621073595754570E+01
HW    2.7024644340306455E+01    2.5380368811497696E+01    2.2631273555746848E+01
OW    1.5748886420796062E+01    2.4394976854740474E+01    2.7191983625767953E+01
HW    1.6541314591941120E+01    2.4363276050837701E+01    2.6690445245924643E+01
HW    1.6052949790183611E+01    2.4672681414449837E+01    2.8089706689487045E+01
OW    2.4937726516504274E+01    3.1381109105538506E+01    4.0360156453782935E+01
HW    2.5662217816777865E+01    3.0746021954933752E+01    4.0248420403039773E+01
HW    2.5406686746234396E+01    3.2200588934339301E+01    4.0636720583721853E+01
OW    2.7234811279043967E+01    2.6691873166274700E+01    3.0779681808842366E+01
HW    2.6649616233548230E+01    2.6455904435166499E+01    3.0027117247042970E+01
HW    2.7974822412156808E+01    2.6085053303264765E+01    3.0676485608379718E+01
OW    2.9650452229306229E+01    2.3987885927259128E+01    2.0532495239589593E+01
HW    2.9084894892982241E+01    2.3253734877394063E+01    2.0645736552026801E+01
HW    2.9092569887103679E+01    2.4649181414538237E+01    2.0005485481619630E+01
OW    2.1071192805263934E+01    3.0950124615828791E+01    3.7243307861342430E+01
HW    2.1216866536033642E+01    3.1876236169123953E+01    3.7112280421756097E+01
HW    2.0336404824608657E+01    3.0938127717230447E+01    3.7896198564733460E+01
OW    2.7081261007734685E+01    3.1648997774900348E+01    2.0670414056072975E+01
HW    2.6430455427388466E+01    3.1152838537862994E+01    2.0091035385917014E+01
HW    2.6493511942915106E+01    3.2184887528510039E+01    2.1218259577636314E+01
OW    2.8679573259807601E+01    3.1060800342175394E+01    3.3442276469687684E+01
HW    2.9601192510525962E+01    3.1156412113505329E+01    3.3307899987900626E+01
HW    2.8549682585952855E+01    3.1330650744343867E+01    3.4377970377256688E+01
OW    3.5101595607002693E+01    7.6827430477986018E+00    2.2986783058342031E+01
HW    3.5520512140369945E+01    8.4413602040224660E+00    2.3443549478300945E+01
HW    3.5668793686136524E+01    6.9567238002331226E+00    2.3325075995604745E+01
OW    1.7829895765267075E+01    2.7117161675680276E+01    2.5371222203491026E+01
HW    1.7827567175563065E+01    2.6175338518470394E+01    2.5258545874129769E+01
HW    1.8737357375674879E+01    2.7343618540715219E+01    2.5567548455824621E+01
OW    1.8427221328169477E+01    3.0570533295012734E+01    2.6454343927073918E+01
HW    1.8635916326403009E+01    2.9968939219189789E+01    2.7178573204913391E+01
HW    1.8892235002576296E+01    3.1384387887945483E+01    2.6664191503704188E+01
OW    2.2885802329265783E+01    3.6890301759503210E+01    2.8088896006811108E+01
HW    2.2049921141600940E+01    3.6366349665044631E+01    2.7982911919326753E+01
HW    2.2555552541986508E+01    3.7468050550164172E+01    2.8845286290104582E+01
OW    3.4994329028961886E+01    2.3959365086469550E+01    4.0250417541926687E+01
HW    3.4657524892813612E+01    2.4774819410882557E+01    3.9835884115376885E+01
HW    3.4178474785148595E+01    2.3379592564859092E+01    4.0135500491887854E+01
OW    2.5110743647671740E+01    3.5759020804050650E+01    2.1762375944667738E+01
HW    2.4901669282092413E+01    3.4805024990558145E+01    2.1784975032428253E+01
HW    2.5698095149859533E+01    3.5717310059642806E+01    2.0941617223506917E+01
OW    3.5336108720885782E+01    3.0115993253175571E+01    2.1558579148312152E+01
HW    3.5548107489970171E+01    3.0320098081494024E+01    2.0619590114266767E+01
HW    3.4748320535730564E+01    3.0885500583479562E+01    2.1755851495211143E+01
OW    3.1342421840674024E+01    3.5547732709412827E+01    1.5247635839978644E+01
HW    3.1908998651893231E+01    3.5554764539420830E+01    1.4466738928879327E+01
HW    3.1100314731913404E+01    3.6479075880592291E+01    1.5345419347974437E+01
OW    3.1599932139592170E+01    3.2177530459514614E+01    2.6783213620491285E+01
HW    3.1933086590863745E+01    3.2324147206277360E+01    2.5895670633251733E+01
HW    3.0690522186635484E+01    3.2006069553283830E+01    2.6738563654423530E+01
OW    2.4632261003543491E+01    3.0893714682299549E+01    2.4430184241782069E+01
HW    2.4857175562597629E+01    3.0244059805415695E+01    2.5136846947135453E+01
HW    2.4537895497565977E+01    3.0270530887961634E+01    2.3668450516675982E+01
OW    3.7024591925634148E+01    2.3265271430813275E+01    3.1701974328965445E+01
HW    3.7124974201393535E+01    2.3131807098129787E+01    3.2694299291171205E+01
HW    3.7840679501386496E+01    2.2754920720000413E+01    3.1465075661505992E+01
OW    1.4432946048979645E+01    3.2208050886633060E+01    3.1286488331227272E+01
HW    1.4300334130699943E+01    3.1818287799505395E+01    3.0411936099598673E+01
HW    1.5281195798129186E+01    3.1778350421360219E+01    3.1499447043681663E+01
OW    2.3564068890529924E+01    2.3214439979906505E+01    2.5106905191572714E+01
HW    2.3328314404965184E+01    2.2409016114469647E+01    2.4593999511746965E+01
HW    2.3825545455576265E+01    2.2704922276088020E+01    2.5963316467924763E+01
OW    2.2336656681592835E+01    2.0476699210736086E+01    3.4817536174948920E+01
HW    2.2644344638793012E+01    2.1042142850971473E+01    3.5577958123400684E+01
HW    2.1737807182091654E+01    1.9894611386922527E+01    3.5340248203969814E+01
OW    3.4905733036359848E+01    2.2755703511719929E+01    3.4383530563959802E+01
HW    3.4365433736673481E+01    2.2708027794982200E+01    3.5209013135298072E+01
HW    3.4992386606391854E+01    2.1809868964896683E+01    3.4211287850414934E+01
OW    2.5636870272878497E+01    2.2484181948034298E+01    3.2478026824951456E+01
HW    2.6256195970090197E+01    2.2651190384178811E+01    3.3191967370697881E+01
HW    2.5775573879445965E+01    2.1467628692230939E+01    3.2391149974230196E+01
OW    2.4523110899377507E+01    2.2935587075639830E+01    2.1635444530594391E+01
HW    2.5053643505307466E+01    2.3551279192847392E+01    2.2098987716846381E+01
HW    2.3838490366053527E+01    2.3508155240387911E+01    2.1224983654610948E+01
OW    2.3750008175514711E+01    2.1717567355468418E+01    2.7215991384397281E+01
HW    2.4542200123070014E+01    2.1093592139143500E+01    2.7092455546086111E+01
HW    2.4069145484062755E+01    2.2165696758908773E+01    2.8001252234613599E+01
OW    2.2002533345851468E+01    2.5338133680754606E+01    1.7556684228335346E+01
HW    2.1170154144730702E+01    2.5629356792533788E+01    1.7083710739039866E+01
HW    2.2124924027410863E+01    2.6174695424902485E+01    1.8094308609016338E+01
OW    3.3721099893870097E+01    1.8901158795270856E+01    1.8446512455016304E+01
HW    3.4696789885743421E+01    1.8796813046325003E+01    1.8453686945907574E+01
HW    3.3600720485597037E+01    1.9671243929548641E+01    1.9072753309093009E+01
OW    1.8780685872191491E+01    2.5829499668751403E+01    3.5926859720412274E+01
HW    1.8741062788872078E+01    2.6730899414021184E+01    3.5570676415549720E+01
HW    1.7852172463218650E+01    2.5594955789821057E+01    3.6095428584683788E+01
OW    2.8903341606398445E+01    2.0992287560249821E+01    2.4541207053715322E+01
HW    2.8507104795367798E+01    2.0160417356727930E+01    2.4855612778910679E+01
HW    2.9448538067831560E+01    2.0711149942951810E+01    2.3768511744238971E+01
OW    1.6682189581982897E+01    2.2803433818785084E+01    4.1022017908759345E+01
HW    1.7087434753250371E+01    2.1943475604952006E+01    4.1234963370380648E+01
HW    1.6684965788410945E+01    2.2803864880866325E+01    4.0057203902112953E+01
OW    2.3383383214291399E+01    1.6394177734464293E+01    2.8190588569719889E+01
HW    2.4129253940189738E+01    1.6999199745704189E+01    2.8327540865377642E+01
HW    2.2870975910965868E+01    1.6588513068837003E+01    2.9014612434389161E+01
OW    1.1951272130072127E+01    2.9462511197149357E+01    2.1212557591923812E+01
HW    1.1960801966230232E+01    2.9026555531553196E+01    2.0277308268573957E+01
HW    1.2670589720807302E+01    2.8904466634196304E+01    2.1589853272873498E+01
OW    2.7780691278167385E+01    2.3814375431982896E+01    2.7246397321652484E+01
HW    2.7188097560581326E+01    2.3563662323089332E+01    2.6551708098780519E+01
HW    2.8338368901079235E+01    2.4448017253109459E+01    2.6729200472356094E+01
OW    2.0004010638191986E+01    2.2853752346011888E+01    2.6669813829758937E+01
HW    1.9704337958904091E+01    2.2879216660577612E+01    2.7619532895131076E+01
HW    2.0471784492212219E+01    2.2027700537932347E+01    2.6624558398054340E+01
OW    1.4572065751710657E+01    2.5811438407051217E+01    2.4749306289780765E+01
HW    1.5111689396621003E+01    2.5197578529538987E+01    2.5316770761236626E+01
HW    1.4499709463203672E+01    2.5198661747769240E+01    2.3951227957318789E+01
OW    2.8132448089828216E+01    2.6175592591889014E+01    2.3854017786553918E+01
HW    2.9001615468598501E+01    2.6020201625715025E+01    2.3426687803155776E+01
HW    2.8356475836373114E+01    2.6237581528526441E+01    2.4791768429458539E+01
OW    3.3131814326474675E+01    2.4190210866520676E+01    3.3014863159053945E+01
HW    3.3829342123939831E+01    2.3752689926769179E+01    3.3497777082600145E+01
HW    3.2513977487248106E+01    2.3435931959829801E+01    3.2790194661839543E+01
OW    2.2806768376158452E+01    2.5255029899166058E+01    2.0924965511522448E+01
HW    2.2167943656093815E+01    2.5383444035790429E+01    2.1632804914993930E+01
HW    2.2738346507666190E+01    2.6016784801714142E+01    2.0376486093695334E+01
OW    3.1303599455998423E+01    1.5706269703973128E+01    3.0022742412207467E+01
HW    3.0937809569885719E+01    1.5145735801377208E+01    2.9323635546516481E+01
HW    3.2233979655294043E+01    1.5578197713340755E+01    2.9955215776722113E+01
OW    1.8796129885917523E+01    2.7973567582537459E+01    3.1632820880653767E+01
HW    1.9063216640803528E+01    2.7044575492825466E+01    3.1596290475692477E+01
HW    1.8210237908285940E+01    2.7932388124415610E+01    3.2413915585861510E+01
OW    2.0651669243543211E+01    2.6996299909557422E+01    2.5044124613805224E+01
HW    2.1141959291069046E+01    2.6300263276879054E+01    2.5577496966041004E+01
HW    2.1277029162889189E+01    2.7085133969916182E+01    2.4317572108804310E+01
OW    1.8537996920784597E+01    2.4110579672104926E+01    2.2539866964873504E+01
HW    1.8975981807548752E+01    2.4926834005282988E+01    2.2227864445941201E+01
HW    1.9298671853047008E+01    2.3525911521313979E+01    2.2571498407301771E+01
OW    1.9918362424870736E+01    3.0984179320034809E+01    3.0926242143654541E+01
HW    2.0219750792801719E+01    3.0837591142180461E+01    3.0056623089454821E+01
HW    1.9666515463360870E+01    3.0097230633209154E+01    3.1228807026376426E+01
OW    1.8411118108461114E+01    3.5979153494373620E+01    2.0489382507709333E+01
HW    1.8199424616313518E+01    3.6278906662376102E+01    2.1401074460096567E+01
HW    1.9105937412606448E+01    3.6626907181260684E+01    2.0264677131836432E+01
OW    3.1186193483623789E+01    2.6343725357027640E+01    2.8054706702257047E+01
HW    3.1390803476417727E+01    2.6995134093039329E+01    2.7333380091206841E+01
HW    3.0995187787883339E+01    2.5584742599053794E+01    2.7476649769099122E+01
OW    2.7700926810493907E+01    2.1807365699371484E+01    2.0487187026003170E+01
HW    2.8480588144628644E+01    2.1196877160815205E+01    2.0373448084272763E+01
HW    2.7022621081776894E+01    2.1132092479138883E+01    2.0722272863321543E+01
OW    2.9345248233080824E+01    2.2227175993682092E+01    2.9183430634953222E+01
HW    2.9930539449471606E+01    2.1708469901684399E+01    2.8579094124370855E+01
HW    2.8754725816051319E+01    2.2598949918237047E+01    2.8496059619220294E+01
OW    3.2349287427095867E+01    2.3453598680096015E+01    2.0043115801896167E+01
HW    3.1422657673793175E+01    2.3623967812248075E+01    2.0320521166358386E+01
HW    3.2251575117006396E+01    2.2710788647991038E+01    1.9514875336917029E+01
OW    2.5396979889610513E+01    2.9271711176779760E+01    2.6317993844975728E+01
HW    2.5619335610768854E+01    2.9866179182645457E+01    2.7082521073962482E+01
HW    2.4998023433167059E+01    2.8526255131898306E+01    2.6838753744320439E+01
OW    2.6540008035211059E+01    3.5651980816654081E+01    1.9700652439410394E+01
HW    2.7440085000941838E+01    3.5894942076356330E+01    1.9925769227511449E+01
HW    2.6717410330111960E+01    3.5107545192856669E+01    1.8892636381229302E+01
OW    1.6104897536593715E+01    3.4253268511486745E+01    3.0222913533727574E+01
HW    1.6900519136496968E+01    3.4527411173163337E+01    3.0736777089562018E+01
HW    1.5715876490845451E+01    3.3639477043980968E+01    3.0890227394572854E+01
OW    2.0713032217420327E+01    3.0202847243701939E+01    3.3797135977786546E+01
HW    2.1184582075581581E+01    3.0733054218314784E+01    3.4394694674056126E+01
HW    2.0576305365842103E+01    3.0727731557381340E+01    3.3020052807959679E+01
OW    2.5199038183974263E+01    2.8442289890416372E+01    3.4670774469795568E+01
HW    2.4938752796016814E+01    2.8656284938474304E+01    3.3763664197212989E+01
HW    2.5851884254841160E+01    2.7738583877397737E+01    3.4537244814878903E+01
OW    2.9353973116801676E+01    2.3944402472470575E+01    9.8101176426329282E+00
HW    2.9797120812631540E+01    2.4835034774427594E+01    9.6721672949411381E+00
HW    2.8546687328765316E+01    2.4356161600381018E+01    1.0346355093077239E+01
OW    3.8261755568172049E+01    2.5808008624611546E+01    3.3383864272955769E+01
HW    3.7625058257535756E+01    2.6502591948967790E+01    3.3367914553912314E+01
HW    3.7746942260467193E+01    2.5007144901307807E+01    3.3436156118634180E+01
OW    3.0625322299447618E+01    3.3215270099164243E+01    3.1146309500302728E+01
HW    3.0871743761956203E+01    3.3614899306562194E+01    3.2018670070200230E+01
HW    2.9958052388335933E+01    3.3900820161274567E+01    3.0873889150201087E+01
OW    2.9930701471791195E+01    2.9927221169549696E+01    2.1921937607534950E+01
HW    3.0512645615909271E+01    2.9241221212721463E+01    2.2216163722343765E+01
HW    2.9044144403666774E+01    2.9731084414313504E+01    2.2247854734225140E+01
OW    2.4773812749802971E+01    3.2437585202216624E+01    1.5308001148406378E+01
HW    2.4866232671552513E+01    3.1755767311641961E+01    1.4573005226801738E+01
HW    2.4517731310869458E+01    3.3208623451076086E+01    1.4735858320287724E+01
OW    1.8522775949267654E+01    2.9368774476889516E+01    1.7015821737782368E+01
HW    1.8406439079726862E+01    3.0293552055847414E+01    1.6998710079973449E+01
HW    1.8891655088141935E+01    2.9121625536746691E+01    1.6172178180627853E+01
OW    2.7660242576895275E+01    2.9245112987345848E+01    2.4007964531961033E+01
HW    2.7815802922779366E+01    2.8303678730121103E+01    2.3855195597683245E+01
HW    2.7398663617594867E+01    2.9299762963719267E+01    2.4936665154087137E+01
OW    2.4726677554217758E+01    3.6030599594057364E+01    2.5107815711772748E+01
HW    2.3949662634649219E+01    3.5527122976880065E+01    2.5389276539039141E+01
HW    2.4266352175834150E+01    3.6662087368020885E+01    2.4509184408037342E+01
OW    2.4362161277305265E+01    1.7148813166858080E+01    2.3705187377670462E+01
HW    2.3637087462093334E+01    1.7277167706931607E+01    2.3046483200254709E+01
HW    2.4602678277507636E+01    1.6209235920810556E+01    2.3450967197342269E+01
OW    2.6087667589016455E+01    3.3275640377002240E+01    2.7238375689349745E+01
HW    2.6529909173171283E+01    3.3450775447698916E+01    2.8121695670598257E+01
HW    2.6793127306560780E+01    3.3553656544830240E+01    2.6655136578898937E+01
OW    3.7443215494261324E+01    2.9764788597197153E+01    1.8291068261429853E+01
HW    3.8385140140471194E+01    2.9999978451821214E+01    1.8259722484453917E+01
HW    3.7333966624293346E+01    2.9259350863076993E+01    1.7455103943535310E+01
OW    2.9952014607307987E+01    2.3266522697960358E+01    3.1390412702577898E+01
HW    2.9975446746261351E+01    2.4203094320910903E+01    3.1029238863024574E+01