 # Version information for this restart file 
 # current date 2019-08-15 10:42:41.878
 # current working dir /Users/sllabres/Work/github_repos/CP2K_tutorials_for_biological_simulations/AMBER_NMA/section3/CP2K
 # Program compiled at                              Wed Apr 10 16:53:40 BST 2019
 # Program compiled on                                              S4A-Q177HV29
 # Program compiled for                           Darwin-IntelMacintosh-gfortran
 # Source code revision number                                         svn:18091
 &GLOBAL
   PRINT_LEVEL  LOW
   PROJECT_NAME EM
   RUN_TYPE  GEO_OPT
 &END GLOBAL
 &MOTION
   &GEO_OPT
     OPTIMIZER  LBFGS
     MAX_ITER  1000
     STEP_START_VAL  684
   &END GEO_OPT
   &PRINT
     &TRAJECTORY  SILENT
       FORMAT  XMOL
       &EACH
         GEO_OPT  5
       &END EACH
     &END TRAJECTORY
     &RESTART  SILENT
       &EACH
         GEO_OPT  500
       &END EACH
     &END RESTART
     &RESTART_HISTORY  SILENT
       &EACH
         GEO_OPT  500
       &END EACH
     &END RESTART_HISTORY
   &END PRINT
 &END MOTION
 &FORCE_EVAL
   METHOD  QMMM
   STRESS_TENSOR  ANALYTICAL
   &DFT
     CHARGE  0
     &SCF
       MAX_SCF  30
       EPS_SCF     9.9999999999999995E-07
       SCF_GUESS  ATOMIC
       &OT  T
         MINIMIZER  DIIS
         PRECONDITIONER  FULL_SINGLE_INVERSE
       &END OT
       &OUTER_SCF  T
         EPS_SCF     9.9999999999999995E-07
         MAX_SCF  10
       &END OUTER_SCF
     &END SCF
     &QS
       METHOD  PM3
       &SE
         &COULOMB
           CUTOFF     1.0000000000000002E+01
         &END COULOMB
         &EXCHANGE
           CUTOFF     1.0000000000000002E+01
         &END EXCHANGE
       &END SE
     &END QS
   &END DFT
   &MM
     &FORCEFIELD
       PARMTYPE  AMBER
       PARM_FILE_NAME NMA.LJ_mod.prmtop
       &SPLINE
         RCUT_NB     1.0000000000000002E+01
         EMAX_SPLINE     1.0000000000000000E+08
       &END SPLINE
     &END FORCEFIELD
     &POISSON
       &EWALD
         EWALD_TYPE  SPME
         ALPHA     4.0000000000000008E-01
         GMAX  80
       &END EWALD
     &END POISSON
   &END MM
   &QMMM
     E_COUPL  COULOMB
     INITIAL_TRANSLATION_VECTOR     1.0004670536857201E+03   -2.1307808404461875E+03    5.7758640838193010E+01
     &QM_KIND N
       MM_INDEX  7
     &END QM_KIND
     &QM_KIND O
       MM_INDEX  6
     &END QM_KIND
     &QM_KIND C
       MM_INDEX  2 5 9
     &END QM_KIND
     &QM_KIND H
       MM_INDEX  1 3 4 8 10..12
     &END QM_KIND
     &CELL
       ABC     4.0000000000000007E+01    4.0000000000000007E+01    4.0000000000000007E+01
       ALPHA_BETA_GAMMA     9.0000000000000000E+01    9.0000000000000000E+01    9.0000000000000000E+01
     &END CELL
   &END QMMM
   &SUBSYS
     &CELL
       A     4.0176040999999998E+01    0.0000000000000000E+00    0.0000000000000000E+00
       B     0.0000000000000000E+00    3.9302541000000005E+01    0.0000000000000000E+00
       C     0.0000000000000000E+00    0.0000000000000000E+00    3.9560913000000006E+01
       MULTIPLE_UNIT_CELL  1 1 1
     &END CELL
     &COORD
HC    1.8413624337945727E+01    1.8026531217903891E+01    2.0275728296686264E+01
CT1    1.9261463002790009E+01    1.8517132845960784E+01    2.0778074114051805E+01
HC    1.9235149729905313E+01    1.8227952948829827E+01    2.1836237661592648E+01
HC    1.9080952308359748E+01    1.9596575618379685E+01    2.0696102560506457E+01
C    2.0564980787379067E+01    1.8089961622185097E+01    2.0167310770425534E+01
O    2.0852832313452151E+01    1.6891553975803646E+01    1.9995416774657663E+01
N    2.1456352155844982E+01    1.9037624253714601E+01    1.9690955395681083E+01
H    2.1291502103316912E+01    1.9981451338521943E+01    1.9958817134245340E+01
CT2    2.2825423120391768E+01    1.8696382932881047E+01    1.9278121789226930E+01
H1    2.2794164597197749E+01    1.8028483404390443E+01    1.8406649737225887E+01
H1    2.3350601974201432E+01    1.9611230565764671E+01    1.8978568990652057E+01
H1    2.3394504539028734E+01    1.8198481357655648E+01    2.0079036973445341E+01
OW    2.9682190862615986E+01    2.7921046077445094E+01    2.7313384948581888E+01
HW    2.8972476158283701E+01    2.7306348320773139E+01    2.7004435658242990E+01
HW    2.9973002600424770E+01    2.8265400170347032E+01    2.6434769550353991E+01
OW    2.9473713603218389E+01    3.0161815839020420E+01    2.8881223898816124E+01
HW    2.9176521902520818E+01    2.9737224881389075E+01    2.9716906397368788E+01
HW    2.9514058655814821E+01    2.9362627029377361E+01    2.8302613292991236E+01
OW    2.4209230887762736E+01    3.0584171182617442E+01    3.0410215370138665E+01
HW    2.3445567333542076E+01    2.9962677446546959E+01    3.0440543526383422E+01
HW    2.4552315938416612E+01    3.0465180143556591E+01    3.1320627682048723E+01
OW    3.3608815916458994E+01    3.3372088996363104E+01    2.7381116642965303E+01
HW    3.2926615599697499E+01    3.2770862400334131E+01    2.7751659632657528E+01
HW    3.4119966197989385E+01    3.3583390700128341E+01    2.8185916520764664E+01
OW    2.3669161234174513E+01    3.5297336731966567E+01    3.0382721450296913E+01
HW    2.4224571938201834E+01    3.4615124360957957E+01    2.9940818469830056E+01
HW    2.4363723987008466E+01    3.5973246496402155E+01    3.0558576659283943E+01
OW    2.2567893453644974E+01    2.5359266012856640E+01    2.3806108257343670E+01
HW    2.1589101422214988E+01    2.5495942740488854E+01    2.3866831915541333E+01
HW    2.2608625770373351E+01    2.5066321669016791E+01    2.2861071821986975E+01
OW    2.0358235459948933E+01    2.7328938080955371E+01    2.9397152988331065E+01
HW    2.0985745539656705E+01    2.6575829488605951E+01    2.9347859853752858E+01
HW    2.0498669778075488E+01    2.7728239286028693E+01    2.8510279545212704E+01
OW    3.1299935227348630E+01    3.6819488750789418E+01    2.8320661726696500E+01
HW    3.1426126832722414E+01    3.7772349735183198E+01    2.8188078176969494E+01
HW    3.1730438901509647E+01    3.6464859788545148E+01    2.7509682875606433E+01
OW    2.8188040756019824E+01    3.2445291509642757E+01    2.9844777278565761E+01
HW    2.8569843692595992E+01    3.1725357752628291E+01    2.9292005837258852E+01
HW    2.9011882808209670E+01    3.2747496159281802E+01    3.0297735385857155E+01
OW    2.2100216155481377E+01    2.3735904087658721E+01    3.1858538003735511E+01
HW    2.2102093678181653E+01    2.2978177566776836E+01    3.2488371884053514E+01
HW    2.1214502437996686E+01    2.4109547710701673E+01    3.2054343666633507E+01
OW    3.0142052416748058E+01    2.5203080674695599E+01    2.9422627848246265E+01
HW    3.0530073704519051E+01    2.4333481722394602E+01    2.9670947957259774E+01
HW    3.0389259465127733E+01    2.5216404890522170E+01    2.8463826818117685E+01
OW    2.4577594760428124E+01    2.3911931092407034E+01    2.4931294844523880E+01
HW    2.4400912490423210E+01    2.4133121159468402E+01    2.5874421399222271E+01
HW    2.3932939312294316E+01    2.4528715079223410E+01    2.4505397256816142E+01
OW    3.4152609987594467E+01    2.2861588063611382E+01    2.5745231020453055E+01
HW    3.4728447568757773E+01    2.2116952780686557E+01    2.6035191579121175E+01
HW    3.3930947847494231E+01    2.3247184255368840E+01    2.6622700885370879E+01
OW    2.2410508978144573E+01    2.5494719462408110E+01    2.9717235408744752E+01
HW    2.3109272729131650E+01    2.6000907685315809E+01    3.0198060278263561E+01
HW    2.2215879981804914E+01    2.4810440339379607E+01    3.0396184054717608E+01
OW    2.6464013915691961E+01    2.7934225668063089E+01    2.9619466161843750E+01
HW    2.7196335118839283E+01    2.8306862876295167E+01    3.0152300560075410E+01
HW    2.6829947977914138E+01    2.7041309924787235E+01    2.9424106091161363E+01
OW    2.5818254448672381E+01    2.1842242132894260E+01    3.2767554038895248E+01
HW    2.5634659927226078E+01    2.2608855862064804E+01    3.2173464110946888E+01
HW    2.5438701429498014E+01    2.1123588553446481E+01    3.2215489678290297E+01
OW    3.1272556100571727E+01    3.1645776139395711E+01    2.5289758748334879E+01
HW    3.1093950343388411E+01    3.1749170753465940E+01    2.4325144997408522E+01
HW    3.1030303172665842E+01    3.2558285308660757E+01    2.5583885723813331E+01
OW    2.7174436165617891E+01    3.1327801621229021E+01    3.2161762491721063E+01
HW    2.6510056001077025E+01    3.1920601764114686E+01    3.2580761358112255E+01
HW    2.7365887432497633E+01    3.1840624095350158E+01    3.1346768267918034E+01
OW    3.3269474695075793E+01    2.3568190046002655E+01    2.8275187960977060E+01
HW    3.2591506276589399E+01    2.3466747683982415E+01    2.8981850044523036E+01
HW    3.3405655008949203E+01    2.4541784964868388E+01    2.8317059630181298E+01
OW    2.4766839570325679E+01    2.3805351435206955E+01    3.1115830312434195E+01
HW    2.4875384960546352E+01    2.4783106942537977E+01    3.1103159957826950E+01
HW    2.3837984058699988E+01    2.3749744115183432E+01    3.1437163494949388E+01
OW    2.5650277420341844E+01    3.3272204326807795E+01    3.3411891181452532E+01
HW    2.6219667967150041E+01    3.4064262209690391E+01    3.3274238551633744E+01
HW    2.4764537082763947E+01    3.3690440016848939E+01    3.3302513176343332E+01
OW    2.0889389624428670E+01    3.1085845333326958E+01    2.2849731510655086E+01
HW    2.0782703463036871E+01    3.1688092856396295E+01    2.2078780175436403E+01
HW    2.1037222704689839E+01    3.1753988034801431E+01    2.3558859708286800E+01
OW    3.4998847110930285E+01    3.4495361678698401E+01    2.9539052021470987E+01
HW    3.5055598313537203E+01    3.5224579102081989E+01    3.0195092685926671E+01
HW    3.5820907485844067E+01    3.4673213559397844E+01    2.9022752633885514E+01
OW    3.5952462548055841E+01    2.4233624369916249E+01    3.0336041428537911E+01
HW    3.5963149318675335E+01    2.3642041727191305E+01    3.1114224530922364E+01
HW    3.5622273060595930E+01    2.5060971431014369E+01    3.0749109034233275E+01
OW    2.7969820005396301E+01    2.1646914300602724E+01    2.8455239818553014E+01
HW    2.8068429652436610E+01    2.0846314248049222E+01    2.7898869468197294E+01
HW    2.6994767296573045E+01    2.1752772248024321E+01    2.8441490526942513E+01
OW    3.2213425880688618E+01    3.4694794600083611E+01    2.9899888615409196E+01
HW    3.3154983928196543E+01    3.4763550588504742E+01    2.9658913519542338E+01
HW    3.1838301508777128E+01    3.5445021579198112E+01    2.9394543169542590E+01
OW    3.5036332310754112E+01    3.2037155028463090E+01    2.5437604933594450E+01
HW    3.4696938684113618E+01    3.1119093344068169E+01    2.5543232770869633E+01
HW    3.4451051744966975E+01    3.2505373875653468E+01    2.6072333345160271E+01
OW    3.2410007782153848E+01    3.0966698399668136E+01    3.1666846972470431E+01
HW    3.2615883348795521E+01    3.0419775115881990E+01    3.0875087306118669E+01
HW    3.3256723071847780E+01    3.1461375853199439E+01    3.1744418534603664E+01
OW    3.0253344206243248E+01    2.9078383291000311E+01    2.4904416686909059E+01
HW    2.9319850746320444E+01    2.9381306649322084E+01    2.4852917084698788E+01
HW    3.0709144062197158E+01    2.9943747811401007E+01    2.4978166056985131E+01
OW    3.0224531725402880E+01    2.4896940230885050E+01    2.1919416318703359E+01
HW    2.9604287361638725E+01    2.5399261742251763E+01    2.2494466246702821E+01
HW    3.1034204498490169E+01    2.5443387897175160E+01    2.2026088570364351E+01
OW    3.5369146315059744E+01    2.9364475393234876E+01    3.1313878541315713E+01
HW    3.4662208323490752E+01    2.9534218763118709E+01    3.0647631147161398E+01
HW    3.6140641823148002E+01    2.9720530246297493E+01    3.0845055344995380E+01
OW    3.3882986810651047E+01    2.9508446614906045E+01    2.5450785266104983E+01
HW    3.3279793104218726E+01    2.9511009906576035E+01    2.4680174155652480E+01
HW    3.3338121479785144E+01    2.9015060077491295E+01    2.6101268418196458E+01
OW    3.2777356726814901E+01    2.6766917062583303E+01    3.2941843699322781E+01
HW    3.2504006150521690E+01    2.7634563716133904E+01    3.3321688702369968E+01
HW    3.1929895755900070E+01    2.6519630586158325E+01    3.2500223236095877E+01
OW    2.5943892173972234E+01    2.9323430160507538E+01    2.7292876913114885E+01
HW    2.5566547369156677E+01    2.8493211591776305E+01    2.6917191703561723E+01
HW    2.6162962666083924E+01    2.8987962648527713E+01    2.8197719487153346E+01
OW    2.5828146174201727E+01    3.3761716051547211E+01    2.9428356322339862E+01
HW    2.5382191612101980E+01    3.3048935769230695E+01    2.8920692423918112E+01
HW    2.6711651426587807E+01    3.3335055180943471E+01    2.9553502025099121E+01
OW    2.4535693317858637E+01    2.6559062410558735E+01    3.1050577959559806E+01
HW    2.5089633999150333E+01    2.7153266225080259E+01    3.0493896188932645E+01
HW    2.4844325078666444E+01    2.6839379368350727E+01    3.1942344862505500E+01
OW    3.4303622401654835E+01    3.6020225668457542E+01    3.1739432919706658E+01
HW    3.3815936637896016E+01    3.6861331261647223E+01    3.1848422900074581E+01
HW    3.3630204986195238E+01    3.5393754550590380E+01    3.2089326773218446E+01
OW    2.6351723111171669E+01    3.2603696199298952E+01    3.5985149217364210E+01
HW    2.6040063338772054E+01    3.1672956737570750E+01    3.6055154652926873E+01
HW    2.6046209614932980E+01    3.2810788629490155E+01    3.5074398669717013E+01
OW    3.2783909025944787E+01    2.9790315436056606E+01    2.2816683876182822E+01
HW    3.3313387518733080E+01    2.9118420941838728E+01    2.2325722421960116E+01
HW    3.3393876242496312E+01    3.0560139945062517E+01    2.2731916657440109E+01
OW    2.4335811171967020E+01    2.9946779614278004E+01    3.3159413471570566E+01
HW    2.4079002661914373E+01    3.0764450005863097E+01    3.3643739746973971E+01
HW    2.3482130167125820E+01    2.9455849194527239E+01    3.3217534474470895E+01
OW    3.0402655776207027E+01    3.4155706350874340E+01    2.5978723681044926E+01
HW    3.1073268171265553E+01    3.4863935829835668E+01    2.5931393611501861E+01
HW    2.9678196507146431E+01    3.4627960663410342E+01    2.6448275501015068E+01
OW    2.8629221388574496E+01    3.4067817925263441E+01    3.5172584832369502E+01
HW    2.8144286844252328E+01    3.4637793785238401E+01    3.4543810103377851E+01
HW    2.7883390908584634E+01    3.3635306213262261E+01    3.5635274459909489E+01
OW    3.6999438274991718E+01    1.8939535113266995E+01    2.1009950111323793E+01
HW    3.6678311140603746E+01    1.9595129037917435E+01    2.1675829856342514E+01
HW    3.7946826833508638E+01    1.9151762551221001E+01    2.1002875353510500E+01
OW    2.2731282891767528E+01    2.7770585887211041E+01    2.5216824023437709E+01
HW    2.2955391949551991E+01    2.8488106899962961E+01    2.4579075164837683E+01
HW    2.2699152195704105E+01    2.7006020249508470E+01    2.4603135087832261E+01
OW    2.0393458625850688E+01    3.1116258768303979E+01    3.1117553728406211E+01
HW    2.0168686140592484E+01    3.1266854698644696E+01    3.0170968482544986E+01
HW    2.1072086043825127E+01    3.0410601974947681E+01    3.1008110300201242E+01
OW    2.1979985862252864E+01    3.2423468188403817E+01    2.7350176564741218E+01
HW    2.1911398742355967E+01    3.2500646385543263E+01    2.6374243020763970E+01
HW    2.2913129842156557E+01    3.2147929933377661E+01    2.7444977673125628E+01
OW    3.6549711997173048E+01    3.2725845142283923E+01    3.3566644893061223E+01
HW    3.5961947309427849E+01    3.2630570033799643E+01    3.2781897505729276E+01
HW    3.6618387869022087E+01    3.1779370890928575E+01    3.3828099386738202E+01
OW    3.1980883286168147E+01    3.7081975795561192E+01    3.3121533074235607E+01
HW    3.2467458530382864E+01    3.6876963156711817E+01    3.3949349428068672E+01
HW    3.1526257456627729E+01    3.7899374524199715E+01    3.3367594549441243E+01
OW    3.4135437579065687E+01    3.5222667728525622E+01    2.3723669632300830E+01
HW    3.3462909918119010E+01    3.5442538393382769E+01    2.4392670620940155E+01
HW    3.3550560278116279E+01    3.4921096556443018E+01    2.2986447623981658E+01
OW    2.8073438910240004E+01    3.5008158759344347E+01    2.7102017041177383E+01
HW    2.7137234399216339E+01    3.4761022652767906E+01    2.7001033681575549E+01
HW    2.8067888541453662E+01    3.5449672387331674E+01    2.7970058812760143E+01
OW    3.2344320838231063E+01    3.4403248409184400E+01    2.1839018246157679E+01
HW    3.1398003941488394E+01    3.4641885819799825E+01    2.1956180892731165E+01
HW    3.2246390346601892E+01    3.3662055247380316E+01    2.1199215015195801E+01
OW    3.2729836565176136E+01    3.5700790082473318E+01    2.6254882312883328E+01
HW    3.3018190597916814E+01    3.4802866000308015E+01    2.6560322121225276E+01
HW    3.3615676693846474E+01    3.6146911028516257E+01    2.6279387067443842E+01
OW    3.7102269546141457E+01    2.5207933611693996E+01    3.4100482745231410E+01
HW    3.7383372867247893E+01    2.6122743554981991E+01    3.4322047351949294E+01
HW    3.6145053930895571E+01    2.5271406400160490E+01    3.4299115171810392E+01
OW    2.1193508258513091E+01    3.2620350935017221E+01    3.3287263066697619E+01
HW    2.0905052802669328E+01    3.2064378324001360E+01    3.2531647549247083E+01
HW    2.1756791667902334E+01    3.1991613712149075E+01    3.3775805524590453E+01
OW    2.5319016535371166E+01    2.2431650352453964E+01    2.8809040757859908E+01
HW    2.4823498340603667E+01    2.3013611830526649E+01    2.8196533216709170E+01
HW    2.5229356303610938E+01    2.2957116301740573E+01    2.9640483291567289E+01
OW    2.9957791318110846E+01    2.3776119202694840E+01    3.5014641739746367E+01
HW    2.9259107368013517E+01    2.4386455630443354E+01    3.5336693052495235E+01
HW    2.9405383633394944E+01    2.3158081285941517E+01    3.4481638316878119E+01
OW    3.4331032375338836E+01    2.4904177136843021E+01    3.4253544643337818E+01
HW    3.3705836631924207E+01    2.4590257270415528E+01    3.4943773025578921E+01
HW    3.3741373384456310E+01    2.5533268053510934E+01    3.3774906292444669E+01
OW    3.2260727222249706E+01    2.6783143864230450E+01    3.6424346879863833E+01
HW    3.2297063184504992E+01    2.5803679399665914E+01    3.6397034929053682E+01
HW    3.3188641981058375E+01    2.7003851873333474E+01    3.6577522702611546E+01
OW    2.8276492207050865E+01    2.1229866907985375E+01    2.3865136928690951E+01
HW    2.7590592387815899E+01    2.1373479311504216E+01    2.4550681175243319E+01
HW    2.8761349155687800E+01    2.0472033195485505E+01    2.4250464277199640E+01
OW    2.8023375647593802E+01    2.3172168673916580E+01    3.0768157380532966E+01
HW    2.7661373723733053E+01    2.3985982757941343E+01    3.0369894200198299E+01
HW    2.8123759409624771E+01    2.2609259579283211E+01    2.9972268956336261E+01
OW    2.4950627723584411E+01    2.6817073129295295E+01    2.6571669799417219E+01
HW    2.4573808844031898E+01    2.6031063256046163E+01    2.7016516749178930E+01
HW    2.4142240685555166E+01    2.7172111310664782E+01    2.6137828235647785E+01
OW    3.1301441397654166E+01    2.6532925120825613E+01    2.4677732045587604E+01
HW    3.0996663143308385E+01    2.7460691959786391E+01    2.4599039591998991E+01
HW    3.1866231884726112E+01    2.6463056761237091E+01    2.3880258590716931E+01
OW    2.7374812006926131E+01    2.8058854675505760E+01    3.6271970020416695E+01
HW    2.7468457349119980E+01    2.7089954257198237E+01    3.6154103898808678E+01
HW    2.8313062655512098E+01    2.8331511156059442E+01    3.6189765918416974E+01
OW    3.0699433935399622E+01    2.4942206833217512E+01    2.6810866778788242E+01
HW    3.0881509800651550E+01    2.5543365488221465E+01    2.6049809337075104E+01
HW    3.0899256637891835E+01    2.4079728708563842E+01    2.6387968014431792E+01
OW    2.3237062496665907E+01    2.3884282452762058E+01    3.5366909802692618E+01
HW    2.2358904426868278E+01    2.4185236044600774E+01    3.5044260873269984E+01
HW    2.2960625240983862E+01    2.3078780061315957E+01    3.5861697361647664E+01
OW    2.0270660405121983E+01    2.1329762693040735E+01    2.8879080136878041E+01
HW    1.9826061908887713E+01    2.1959786097489378E+01    2.9490316033350460E+01
HW    2.0934746893194159E+01    2.0946379448452294E+01    2.9495992954188608E+01
OW    2.0124475070245413E+01    2.5243534323632193E+01    1.9426719172583617E+01
HW    2.0009936602105679E+01    2.5993036038143757E+01    2.0054540935003924E+01
HW    1.9220631934894293E+01    2.5212145049308319E+01    1.9041663130155058E+01
OW    3.0352388496754529E+01    2.6819834653666803E+01    3.1609301095352656E+01
HW    3.0078425856971155E+01    2.7620503429696878E+01    3.1128137939889804E+01
HW    3.0303419760034735E+01    2.6154695045046246E+01    3.0883487843311464E+01
OW    2.7444135192605756E+01    2.5424922238901747E+01    2.9159965529899729E+01
HW    2.7358252626625866E+01    2.4959838772556743E+01    2.8300278789248960E+01
HW    2.8426020515535832E+01    2.5447308656681976E+01    2.9240113385609060E+01
OW    2.3643626277489521E+01    2.4441115900149992E+01    2.7504325693354318E+01
HW    2.3288663210767222E+01    2.4890289990651237E+01    2.8313858237789848E+01
HW    2.2824097151669989E+01    2.3937048681034355E+01    2.7259536881054476E+01
OW    2.8172337702283968E+01    2.6063719873166971E+01    2.3340924447168717E+01
HW    2.8155350388097844E+01    2.6412081419319197E+01    2.4255899082723531E+01
HW    2.7821211813275969E+01    2.6832036637584356E+01    2.2846537522360425E+01
OW    3.1469973377046077E+01    2.2934953612813242E+01    3.0251610637506559E+01
HW    3.1606241500702602E+01    2.3327428869338654E+01    3.1152136190470099E+01
HW    3.1057562867954410E+01    2.2082384925559900E+01    3.0525101619931984E+01
OW    2.7166728141162942E+01    2.7879898788697094E+01    2.1486771294848928E+01
HW    2.6465372428166972E+01    2.7420854523522465E+01    2.0970287851006233E+01
HW    2.7869021601130978E+01    2.7934728430810260E+01    2.0799423343517205E+01
OW    3.5190353862574888E+01    1.9308235590553799E+01    3.5539904105838652E+01
HW    3.5789793599780545E+01    1.8528186521876439E+01    3.5572274843526259E+01
HW    3.5568715315579013E+01    1.9756086839355717E+01    3.4744113037747880E+01
OW    2.3263111798924680E+01    3.1664970986768715E+01    3.5028657888594637E+01
HW    2.3795290745222133E+01    3.1114836319946829E+01    3.5637665461325334E+01
HW    2.3334778545728579E+01    3.2536371949649045E+01    3.5447029895771486E+01
OW    2.8427146500498292E+01    2.9073051977198780E+01    3.1206335801261702E+01
HW    2.8418448572848241E+01    2.8542836744452870E+01    3.2039847163763255E+01
HW    2.7979680542641486E+01    2.9887733452242419E+01    3.1543599330586105E+01
OW    2.1366118972857347E+01    2.2998225098644109E+01    2.6996876217015103E+01
HW    2.1033890506791590E+01    2.2266076496161077E+01    2.7563571226198846E+01
HW    2.1590471933110948E+01    2.2497994805558559E+01    2.6184336731930589E+01
OW    2.5599450034679315E+01    2.7488825601225287E+01    3.3410400139432774E+01
HW    2.5489515798863572E+01    2.8442974877340330E+01    3.3228706038260938E+01
HW    2.6575784388386285E+01    2.7439938755812086E+01    3.3520908107450232E+01
OW    2.4969308299287977E+01    3.1817107160561587E+01    2.4122577476669367E+01
HW    2.4278150634650110E+01    3.1116601785738013E+01    2.4068882698100250E+01
HW    2.5674583319726221E+01    3.1384587943696840E+01    2.3590889068298456E+01
OW    3.3456808160980394E+01    2.9829138352647682E+01    2.9386273488719727E+01
HW    3.2980308383310579E+01    3.0535652650486231E+01    2.8881137056414119E+01
HW    3.3280643161160810E+01    2.9075795441319055E+01    2.8768279366296337E+01
OW    3.0631712407915956E+01    2.2409724361660267E+01    2.3005705912330079E+01
HW    2.9726415654901942E+01    2.2075645855785048E+01    2.3181652449559504E+01
HW    3.0418420651124176E+01    2.3276645173120666E+01    2.2593131654231104E+01
OW    3.1148961175659853E+01    3.0623696826185643E+01    3.6646006124560095E+01
HW    3.0767451269852419E+01    2.9758783990048432E+01    3.6373883189709019E+01
HW    3.0363064794649915E+01    3.0990063150916352E+01    3.7123270197818456E+01
OW    3.2670817038174576E+01    2.6190501698931325E+01    2.2296716975060999E+01
HW    3.3265634035577833E+01    2.6916183639434024E+01    2.1991632758974820E+01
HW    3.3240991969051592E+01    2.5418667864447173E+01    2.2065300195509074E+01
OW    2.4641503955063737E+01    3.1666625269922609E+01    2.7970576780427265E+01
HW    2.5096613652210113E+01    3.0868836777098448E+01    2.7598466554455758E+01
HW    2.4425338062186725E+01    3.1294303613251000E+01    2.8867552978274556E+01
OW    2.9825689159201204E+01    3.2186624823401282E+01    2.3008504351908194E+01
HW    2.9750738445651578E+01    3.3033703329263112E+01    2.2511401278766574E+01
HW    2.9117117246850569E+01    3.2329750340248481E+01    2.3676053703960424E+01
OW    2.1966774496048114E+01    2.8548777552400857E+01    3.3552222914610191E+01
HW    2.1069741529338188E+01    2.8571921393431353E+01    3.3953753259215667E+01
HW    2.2391980369203385E+01    2.7873224029795253E+01    3.4125500578592138E+01
OW    2.5444643862595640E+01    3.0011758752123004E+01    3.5865569672549512E+01
HW    2.5293243163446405E+01    2.9633424146568853E+01    3.4979658696353994E+01
HW    2.6095555113705707E+01    2.9354234189923329E+01    3.6216854789773258E+01
OW    3.0966037826770926E+01    3.2713724510626292E+01    3.4674350632820165E+01
HW    3.1049004107974238E+01    3.2101462724406083E+01    3.5432910780518888E+01
HW    3.0172347749770655E+01    3.3228098726160162E+01    3.4953063251774005E+01
OW    3.4352935879830355E+01    2.8130818381389439E+01    2.1294018420218592E+01
HW    3.4156681168217197E+01    2.8119279661553524E+01    2.0325391983140648E+01
HW    3.5284014729241349E+01    2.8463769898836254E+01    2.1248784234811019E+01
OW    3.5943754203599589E+01    3.0024528233222764E+01    3.3973330312825510E+01
HW    3.5110629811484614E+01    3.0061269585890503E+01    3.4489938906073462E+01
HW    3.5599479566723012E+01    2.9735134950709810E+01    3.3101834630276613E+01
OW    3.7129302759073347E+01    3.3837759633538404E+01    2.5517993384674160E+01
HW    3.6441420463476966E+01    3.3133634045043443E+01    2.5473474458828651E+01
HW    3.7162809724391366E+01    3.4085187123087550E+01    2.4563798595860909E+01
OW    3.1755789045447745E+01    3.1458244363842443E+01    2.8016371519989644E+01
HW    3.1600686736626759E+01    3.1365763328818687E+01    2.7048013750784420E+01
HW    3.0904685311593902E+01    3.1092628581939557E+01    2.8351265858165835E+01
OW    2.8171354263532077E+01    3.2687705432360808E+01    2.5157631273136687E+01
HW    2.8893524700782695E+01    3.3252540112832023E+01    2.5511179191116177E+01
HW    2.7393992353240495E+01    3.3167862206311945E+01    2.5521854564068764E+01
OW    2.0062473182160986E+01    2.7500324065582053E+01    2.1022790495515284E+01
HW    2.1004514134327234E+01    2.7680217655654918E+01    2.1236037379562013E+01
HW    1.9816955134961901E+01    2.8353890964217257E+01    2.0606478138807148E+01
OW    2.7672798823152320E+01    3.0009912966634420E+01    2.5174921334382443E+01
HW    2.7816194146410613E+01    3.0968441777232385E+01    2.5341529969000302E+01
HW    2.7111295834291830E+01    2.9784206391650695E+01    2.5948082210696896E+01
OW    2.9869349052552774E+01    3.5589722371830717E+01    3.1938677206273137E+01
HW    3.0685665481183495E+01    3.5995165052066270E+01    3.2297083395563988E+01
HW    3.0168564761483601E+01    3.4662729312475335E+01    3.1821160917911637E+01
OW    2.4002092397513877E+01    2.0189932687805555E+01    2.6129692592951162E+01
HW    2.3268860581028335E+01    1.9715175101969951E+01    2.6591062672457596E+01
HW    2.3459704210189706E+01    2.0734982016741032E+01    2.5509688900055608E+01
OW    3.0537488046817135E+01    3.2977327081273131E+01    3.1169407093290250E+01
HW    3.1091480508394501E+01    3.2214767647353462E+01    3.1445921942058163E+01
HW    3.1198001819320343E+01    3.3474500298120610E+01    3.0631940152437611E+01
OW    3.5643325461454111E+01    3.3202586180979878E+01    2.0636995806043046E+01
HW    3.5139007055378514E+01    3.2678581227722802E+01    2.1301068489709280E+01
HW    3.5007970274293001E+01    3.3180843477688910E+01    1.9888929360116041E+01
OW    3.2846253697689086E+01    3.4096749239292357E+01    3.3275579637734097E+01
HW    3.2755065733989639E+01    3.4842552129200719E+01    3.3908993591035312E+01
HW    3.2103761784627942E+01    3.3525521948909272E+01    3.3602126794592444E+01
OW    2.2157533400438030E+01    2.1576498305305659E+01    3.6340526215387328E+01
HW    2.1304080846488159E+01    2.1516712315492438E+01    3.6799264684255967E+01
HW    2.2649229500757556E+01    2.0849025581112759E+01    3.6795089120767415E+01
OW    3.4836581860939795E+01    3.1633425670364133E+01    2.2727826076051652E+01
HW    3.4793630785179950E+01    3.2007898037039531E+01    2.3638683552402632E+01
HW    3.5713951830261109E+01    3.1188350199121469E+01    2.2784864945150446E+01
OW    1.9761747529901260E+01    3.5923568082622573E+01    3.5132220777207117E+01
HW    1.9612951062728570E+01    3.4961642317490096E+01    3.5237836586109729E+01
HW    1.8851872076163080E+01    3.6212661861995784E+01    3.4909850213134028E+01
OW    2.6930342512451592E+01    3.5432300653881526E+01    2.1599163734083433E+01
HW    2.6374423308490080E+01    3.5919951748659237E+01    2.0958461862220489E+01
HW    2.6254222658409201E+01    3.4823144568905050E+01    2.1974781330358446E+01
OW    2.3232715454874871E+01    2.9775020331734435E+01    2.3395906029732988E+01
HW    2.2354466232255898E+01    3.0163783569469086E+01    2.3176570247181797E+01
HW    2.3589561107813257E+01    2.9662478668557217E+01    2.2485504280708628E+01
OW    3.1700469908484774E+01    2.3750778822272743E+01    3.2825221944707835E+01
HW    3.2315989815704782E+01    2.3102556988817089E+01    3.3224928131258530E+01
HW    3.1087683698614835E+01    2.3900479117254232E+01    3.3572103757884761E+01
OW    3.5808169056791208E+01    2.3346450855449550E+01    2.3626573323120997E+01
HW    3.5294134157509582E+01    2.3741708843004098E+01    2.2890959858517647E+01