 # Version information for this restart file 
 # current date 2019-08-15 12:58:40.584
 # current working dir /Users/sllabres/Work/github_repos/CP2K_tutorials_for_biological_simulations/AMBER_NMA/section3/CP2K
 # Program compiled at                              Wed Apr 10 16:53:40 BST 2019
 # Program compiled on                                              S4A-Q177HV29
 # Program compiled for                           Darwin-IntelMacintosh-gfortran
 # Source code revision number                                         svn:18091
 &GLOBAL
   PRINT_LEVEL  LOW
   PROJECT_NAME MD_QMMM
   RUN_TYPE  MD
 &END GLOBAL
 &MOTION
   &MD
     ENSEMBLE  NPT_I
     STEPS  20000
     TIMESTEP     4.9999999999999994E-01
     STEP_START_VAL  20000
     TIME_START_VAL     1.0000000000003954E+04
     ECONS_START_VAL    -5.6224316231247180E+01
     TEMPERATURE     2.9800000000000000E+02
     &BAROSTAT
       PRESSURE     1.0000000000000000E+00
       TIMECON     9.9999999999999986E+01
       &VELOCITY
             1.6530691066111091E-06
       &END VELOCITY
       &MASS
             2.1193572450320572E+08
       &END MASS
       &THERMOSTAT
         TYPE  CSVR
         &CSVR
           TIMECON     9.6755373060191385E-01
           &THERMOSTAT_ENERGY
                 1.9971250790493245E-01
           &END THERMOSTAT_ENERGY
           &RNG_INIT
Wiener process for Thermostat # 1        1 F T F   1.9363248008061223E-01         980101228.0        2426659048.0        1888507207.0        2656091836.0        3450664206.0        1592160476.0             12345.0             12345.0             12345.0             12345.0             12345.0             12345.0             12345.0             12345.0             12345.0             12345.0             12345.0             12345.0
           &END RNG_INIT
         &END CSVR
       &END THERMOSTAT
     &END BAROSTAT
     &THERMOSTAT
       TYPE  CSVR
       REGION  GLOBAL
       &CSVR
         TIMECON     9.9999999999999982E+00
         &THERMOSTAT_ENERGY
              -6.9515777475204938E+00
         &END THERMOSTAT_ENERGY
         &RNG_INIT
Wiener process for Thermostat # 1        1 F T F   1.1209735702496255E+00        1472120562.0        1933660239.0        3504507829.0         578818988.0        2523307492.0         528828074.0             12345.0             12345.0             12345.0             12345.0             12345.0             12345.0             12345.0             12345.0             12345.0             12345.0             12345.0             12345.0
         &END RNG_INIT
       &END CSVR
     &END THERMOSTAT
     &AVERAGES  T
       &RESTART_AVERAGES
         ITIMES_START  1
         AVECPU     3.9663838546275992E-01
         AVEHUGONIOT     0.0000000000000000E+00
         AVETEMP_BARO     4.3610216478942840E+02
         AVEPOT    -5.5631352811456303E+01
         AVEKIN     6.1908360398414679E+00
         AVETEMP     2.9761879739754517E+02
         AVEKIN_QM     2.2633082913563297E-02
         AVETEMP_QM     3.9705298822158670E+02
         AVEVOL     3.2071386058380402E+05
         AVECELL_A     6.9174915953739159E+01
         AVECELL_B     6.7670927815995043E+01
         AVECELL_C     6.8115791494444096E+01
         AVEALPHA     9.0000000000000000E+01
         AVEBETA     9.0000000000000000E+01
         AVEGAMMA     9.0000000000000000E+01
         AVE_ECONS     5.1189512456224699E+00
         AVE_PRESS    -1.9104824521996751E+01
         AVE_PXX    -6.7226134759083237E+01
       &END RESTART_AVERAGES
     &END AVERAGES
   &END MD
   &PRINT
     &TRAJECTORY  SILENT
       FORMAT  DCD
       &EACH
         MD  4
       &END EACH
     &END TRAJECTORY
     &CELL  SILENT
       &EACH
         MD  100
       &END EACH
     &END CELL
     &RESTART  SILENT
       &EACH
         MD  25000
       &END EACH
     &END RESTART
     &RESTART_HISTORY  SILENT
       &EACH
         MD  5000
       &END EACH
     &END RESTART_HISTORY
   &END PRINT
 &END MOTION
 &FORCE_EVAL
   METHOD  QMMM
   STRESS_TENSOR  ANALYTICAL
   &DFT
     CHARGE  0
     &SCF
       MAX_SCF  30
       EPS_SCF     9.9999999999999995E-07
       SCF_GUESS  ATOMIC
       &OT  T
         MINIMIZER  DIIS
         PRECONDITIONER  FULL_SINGLE_INVERSE
       &END OT
       &OUTER_SCF  T
         EPS_SCF     9.9999999999999995E-07
         MAX_SCF  10
       &END OUTER_SCF
     &END SCF
     &QS
       METHOD  PM3
       &SE
         &COULOMB
           CUTOFF     1.0000000000000002E+01
         &END COULOMB
         &EXCHANGE
           CUTOFF     1.0000000000000002E+01
         &END EXCHANGE
       &END SE
     &END QS
     &REAL_TIME_PROPAGATION
       INITIAL_WFN  SCF_WFN
     &END REAL_TIME_PROPAGATION
   &END DFT
   &MM
     &FORCEFIELD
       PARMTYPE  AMBER
       PARM_FILE_NAME NMA.LJ_mod.prmtop
       &SPLINE
         RCUT_NB     1.0000000000000002E+01
         EMAX_SPLINE     1.0000000000000000E+08
       &END SPLINE
     &END FORCEFIELD
     &POISSON
       &EWALD
         EWALD_TYPE  SPME
         ALPHA     4.0000000000000008E-01
         GMAX  80
       &END EWALD
     &END POISSON
   &END MM
   &QMMM
     E_COUPL  COULOMB
     INITIAL_TRANSLATION_VECTOR     9.9897198761107029E+02   -2.1402309276521910E+03    4.7366555819887090E+01
     &QM_KIND N
       MM_INDEX  7
     &END QM_KIND
     &QM_KIND O
       MM_INDEX  6
     &END QM_KIND
     &QM_KIND C
       MM_INDEX  2 5 9
     &END QM_KIND
     &QM_KIND H
       MM_INDEX  1 3 4 8 10..12
     &END QM_KIND
     &CELL
       ABC     4.0000000000000007E+01    4.0000000000000007E+01    4.0000000000000007E+01
       ALPHA_BETA_GAMMA     9.0000000000000000E+01    9.0000000000000000E+01    9.0000000000000000E+01
     &END CELL
   &END QMMM
   &SUBSYS
     &CELL
       A     3.5666977453391695E+01    0.0000000000000000E+00    0.0000000000000000E+00
       B     0.0000000000000000E+00    3.4891512673138223E+01    0.0000000000000000E+00
       C     0.0000000000000000E+00    0.0000000000000000E+00    3.5120886898901034E+01
       MULTIPLE_UNIT_CELL  1 1 1
     &END CELL
     &COORD
HC    1.9937742328999168E+01    2.2050037384429327E+01    2.1339177192393308E+01
CT1    1.9089470627520857E+01    2.1760169607250610E+01    2.0722273014903859E+01
HC    1.8953139694371703E+01    2.2323537803259590E+01    1.9839955706561167E+01
HC    1.8203889755415840E+01    2.1924810165413511E+01    2.1343088655695169E+01
C    1.9261236251062162E+01    2.0267673525795203E+01    2.0478058936332427E+01
O    1.8269743476788765E+01    1.9486478895734770E+01    2.0275859851720845E+01
N    2.0477748735965847E+01    1.9772261069206468E+01    2.0193079632684846E+01
H    2.1354029541510208E+01    2.0366256929664370E+01    2.0224133776956073E+01
CT2    2.0713471130850568E+01    1.8430611065163841E+01    1.9716840566279402E+01
H1    2.0632074647943661E+01    1.8307628233373126E+01    1.8656911344304838E+01
H1    2.1796110244584160E+01    1.8126638596627643E+01    1.9842453360467971E+01
H1    2.0092272664802486E+01    1.7676462196740413E+01    2.0240577302317995E+01
OW    2.6205748795695957E+01    2.4885531778553151E+01    2.8833799413282037E+01
HW    2.6581559803289327E+01    2.5794265017851355E+01    2.8710567160934705E+01
HW    2.5314427543611220E+01    2.5155488202746401E+01    2.9163558972751343E+01
OW    2.1433389708830106E+01    3.2815947038285330E+01    3.5673908059402983E+01
HW    2.1860879251031456E+01    3.3273162812398169E+01    3.4876256721922800E+01
HW    2.0478740900094493E+01    3.2853079016318041E+01    3.5412607178388662E+01
OW    2.8067099368527419E+01    3.8616629971452440E+01    2.8432938943208779E+01
HW    2.8982500057610093E+01    3.8440619411360778E+01    2.8730158165495315E+01
HW    2.7963038778476747E+01    3.9552420414696925E+01    2.8766719538139210E+01
OW    3.0749746655688046E+01    3.4916153666482252E+01    3.3188493664388488E+01
HW    3.1106683712446031E+01    3.5692662972703424E+01    3.3672625559761038E+01
HW    3.1298636474854185E+01    3.4200468484224288E+01    3.3544026930436608E+01
OW    2.5563313387420035E+01    3.4976447846361452E+01    2.9205043826074750E+01
HW    2.5463954401572206E+01    3.4700232358432139E+01    3.0194198070775478E+01
HW    2.6524957512645706E+01    3.5243603628251485E+01    2.9298769354041752E+01
OW    2.1308401047894879E+01    3.2831934575524372E+01    2.4574026819614456E+01
HW    2.1636204282903982E+01    3.3690832444536596E+01    2.4170416097388546E+01
HW    2.2183592195180012E+01    3.2393687559227537E+01    2.4627336326435870E+01
OW    1.9468552192578152E+01    2.7862133451910147E+01    2.7790900176646790E+01
HW    2.0022202588848632E+01    2.8250425890739493E+01    2.8516195512291478E+01
HW    1.9108383352634167E+01    2.8684777935404050E+01    2.7401335076308985E+01
OW    2.6024639360695620E+01    3.9420187658003343E+01    3.5792141718065430E+01
HW    2.6144566906807412E+01    3.9372604251893293E+01    3.6769255151236315E+01
HW    2.6964089028210505E+01    3.9613160790048269E+01    3.5498417876778504E+01
OW    3.1386118917604001E+01    3.2185641738049696E+01    3.6092616137953094E+01
HW    3.1424077943270678E+01    3.2271918556755139E+01    3.5139587824805524E+01
HW    3.0837148104708579E+01    3.2961240795597377E+01    3.6357603064520006E+01
OW    2.5831444339889842E+01    2.4681568259842109E+01    3.5320053362977184E+01
HW    2.6241113672977132E+01    2.3803787494958794E+01    3.5155875104148393E+01
HW    2.6397441144500796E+01    2.5203880608771168E+01    3.4636156944433090E+01
OW    2.8525362557215146E+01    2.7348431087509358E+01    3.1058459894993224E+01
HW    2.9390623695837213E+01    2.7718331804581783E+01    3.1101726177624762E+01
HW    2.7913964249548641E+01    2.8040837994410129E+01    3.1362869778755918E+01
OW    2.1777398386278630E+01    2.9906155938097488E+01    1.6578917714101170E+01
HW    2.1930054001537865E+01    3.0763591237607717E+01    1.6991409999220298E+01
HW    2.2639908195146095E+01    2.9468347929476757E+01    1.6682683064447779E+01
OW    2.8956522510635708E+01    2.6932020027559034E+01    3.5725371095348585E+01
HW    2.8444333576909791E+01    2.6683667095491209E+01    3.4978217008457975E+01
HW    2.9541680147018855E+01    2.6144284078010781E+01    3.5843062141141345E+01
OW    2.4899619811382607E+01    3.0052511134867970E+01    2.6627729791737003E+01
HW    2.4022223244203030E+01    2.9623769107122012E+01    2.6769860708558138E+01
HW    2.4628580206575123E+01    3.0989355458494078E+01    2.6789251655789268E+01
OW    2.4791712690740400E+01    3.4111600734162487E+01    3.1521766488845433E+01
HW    2.4059298099168135E+01    3.3463772235997482E+01    3.1581107759437025E+01
HW    2.4971738838664535E+01    3.4309681892562352E+01    3.2424359369707354E+01
OW    2.6197854976670236E+01    2.6654406995577762E+01    4.0584148896756496E+01
HW    2.6577350613902190E+01    2.6906763523464221E+01    3.9706447880406877E+01
HW    2.6899699575720387E+01    2.6081408443325145E+01    4.0929471265934588E+01
OW    2.8490026536931669E+01    3.5784035003591100E+01    3.0376957589146549E+01
HW    2.9125327336106036E+01    3.6262067532633949E+01    2.9807894738462377E+01
HW    2.7834384230409373E+01    3.6479003348826524E+01    3.0595882203714382E+01
OW    1.9247763401322889E+01    3.8196634215344083E+01    4.0908239968798590E+01
HW    1.9435437419007322E+01    3.7304965011468546E+01    4.1276440537383820E+01
HW    1.9822153801185955E+01    3.8761029020847232E+01    4.1396056646677202E+01
OW    2.6782377742446524E+01    3.1700305043950937E+01    3.1841117926846444E+01
HW    2.7710959138115903E+01    3.2093713163795222E+01    3.1915669568764898E+01
HW    2.6409106765244736E+01    3.2211905508378798E+01    3.2604342711513851E+01
OW    2.9179364587553383E+01    2.3425377078121059E+01    2.8919129809093782E+01
HW    2.9578072884438612E+01    2.4135334697922655E+01    2.8357933479818023E+01
HW    2.8252964757666135E+01    2.3585350603605381E+01    2.8764266079383134E+01
OW    2.6650733193339121E+01    3.6153173509876332E+01    3.9831502856481897E+01
HW    2.6430185540134637E+01    3.7093308289701994E+01    4.0060432176909238E+01
HW    2.7554014240440718E+01    3.6080857241858645E+01    4.0205513170396031E+01
OW    1.5364001441155446E+01    3.6234856564804005E+01    2.3952797840574775E+01
HW    1.4508969969050050E+01    3.6286225344343954E+01    2.3417583819327938E+01
HW    1.5647312686070142E+01    3.7134052869951702E+01    2.3839930182249120E+01
OW    3.4214018830367834E+01    3.6236442997475478E+01    3.6077718597272714E+01
HW    3.3918209114406793E+01    3.6638343344807915E+01    3.5243329996103874E+01
HW    3.4957041951947282E+01    3.6763791555341143E+01    3.6365700647226639E+01
OW    3.8807025132683648E+01    2.4812944707128629E+01    3.7405870818380265E+01
HW    3.7868283258622654E+01    2.4748821171607677E+01    3.7404926971182505E+01
HW    3.8976274513770051E+01    2.5747790031260212E+01    3.7698675272955676E+01
OW    2.2564909372115086E+01    2.9273072959902127E+01    2.5757877603430945E+01
HW    2.1724217354363009E+01    2.9294911430451634E+01    2.5261603411829284E+01
HW    2.3228885771554275E+01    2.9300585528774810E+01    2.5037783878728032E+01
OW    2.2391215411793954E+01    4.1396742844481672E+01    4.0664912675824525E+01
HW    2.1458798140406920E+01    4.1567457241980847E+01    4.0510267693407862E+01
HW    2.2340338672972578E+01    4.0777838082339656E+01    4.1427353572238829E+01
OW    3.4113501695317801E+01    3.4660686093160152E+01    3.3347708300326481E+01
HW    3.4552759644396794E+01    3.5151452335342519E+01    3.4097592953259522E+01
HW    3.4461653324510266E+01    3.5128319959008131E+01    3.2613670272767031E+01
OW    3.0804360951878749E+01    3.4126616504564254E+01    3.8043699265822831E+01
HW    3.0152379242344363E+01    3.4418278960925939E+01    3.8745474575581966E+01
HW    3.1038540311273266E+01    3.5000277459674678E+01    3.7696323083575059E+01
OW    2.7627516277033269E+01    2.8126148222144060E+01    2.4189358808874193E+01
HW    2.7145860808065219E+01    2.7850244147281760E+01    2.4959372487295937E+01
HW    2.8479905755423630E+01    2.7656948347301181E+01    2.4271379825792994E+01
OW    2.9079307095852364E+01    2.8233389507248301E+01    2.7040531090456543E+01
HW    2.8276859790053305E+01    2.8682413888051851E+01    2.7297893224970938E+01
HW    2.9411874667655340E+01    2.8781477119409832E+01    2.6309370075397627E+01
OW    3.2020383850148029E+01    3.0720248639233816E+01    4.3194976877222231E+01
HW    3.1284129643685695E+01    3.0428867235329662E+01    4.2602594872738962E+01
HW    3.2571881493537767E+01    2.9920986961036757E+01    4.3169798467394195E+01
OW    3.2405308830732430E+01    2.8872376901423582E+01    3.3665368176898127E+01
HW    3.1554391522217276E+01    2.9326340194640931E+01    3.3619375893851050E+01
HW    3.2626931402058915E+01    2.8906176506847807E+01    3.4644082511958906E+01
OW    2.7938347638223405E+01    2.6916159268194381E+01    3.8532094796668524E+01
HW    2.8492292026421566E+01    2.6963228524073255E+01    3.9337848945008155E+01
HW    2.8635112230389762E+01    2.6750065657871719E+01    3.7863311516118088E+01
OW    2.4799767029081739E+01    3.7202204778331840E+01    3.4245677165906912E+01
HW    2.5127430191502629E+01    3.7902888681904521E+01    3.4831424152877524E+01
HW    2.5171228410173715E+01    3.6402026644004827E+01    3.4647200693548086E+01
OW    2.1324761382516595E+01    3.5299688540644482E+01    2.6902151624736266E+01
HW    2.2268598633755683E+01    3.5490361693992710E+01    2.7029080772559112E+01
HW    2.1357563622798068E+01    3.5058918600429628E+01    2.5908521693906717E+01
OW    2.2939078996540502E+01    2.9864044246652387E+01    3.2883593146116333E+01
HW    2.3818928172717513E+01    2.9565825117156304E+01    3.2702412158544988E+01
HW    2.2819813392941946E+01    2.9596912440955357E+01    3.3815138797450949E+01
OW    3.2609390190270538E+01    3.7841951820729129E+01    3.4515216411966286E+01
HW    3.2183615204864729E+01    3.8697090679480603E+01    3.4452020255923394E+01
HW    3.1886569743550275E+01    3.7251964605513457E+01    3.4788299866839871E+01
OW    2.1082595790859067E+01    3.9726472655615197E+01    4.2621998031368754E+01
HW    2.1323263371262843E+01    3.9211988759983718E+01    4.3456187202301145E+01
HW    2.0183944360685672E+01    4.0007008807695925E+01    4.2917649051638044E+01
OW    2.9756726013570386E+01    2.5500879408799843E+01    2.7048178316930432E+01
HW    3.0729745545172054E+01    2.5782839984271643E+01    2.7020487567967002E+01
HW    2.9350301590232394E+01    2.6329785208776940E+01    2.6820385076717205E+01
OW    2.0341511686400487E+01    2.9190811061564045E+01    3.1914492389695692E+01
HW    2.1226889133268433E+01    2.9266063795760303E+01    3.2362940201923792E+01
HW    2.0077657737535183E+01    2.8270573133610064E+01    3.2184896932329664E+01
OW    3.2915802123449076E+01    4.1856354235155848E+01    2.5484045570012462E+01
HW    3.2300152381188511E+01    4.1265985472313439E+01    2.5011756272235232E+01
HW    3.3063517923890934E+01    4.2565230984942701E+01    2.4867049473170201E+01
OW    2.1746446110425349E+01    3.5565607365460359E+01    4.0415130976120331E+01
HW    2.1749263540615221E+01    3.5202474158271578E+01    3.9502603045740592E+01
HW    2.2018676902570469E+01    3.4830788742819571E+01    4.0976150695043579E+01
OW    3.0292526862291215E+01    1.7584695661858678E+01    2.3818756769534549E+01
HW    3.0740561519596916E+01    1.8415659947142331E+01    2.3718352351455053E+01
HW    2.9428042894379534E+01    1.7825407265107742E+01    2.4187016764318841E+01
OW    2.5317020877648986E+01    3.0509259848634144E+01    2.3700331776909824E+01
HW    2.5784154100942210E+01    3.0129035792944947E+01    2.4476092793164497E+01
HW    2.4721546315335246E+01    3.1173502736559925E+01    2.4220092540625394E+01
OW    2.2377804784973808E+01    3.2396808169833839E+01    3.1577788575685371E+01
HW    2.2681761914263262E+01    3.1508726974450699E+01    3.1875158112024678E+01
HW    2.1894621528732394E+01    3.2118360964177654E+01    3.0785274534045197E+01
OW    1.0610419708388166E+01    3.5863630065560486E+01    2.5664507400881899E+01
HW    9.6208636608066165E+00    3.5905414804277747E+01    2.5462444448888562E+01
HW    1.0802114515495694E+01    3.6841469383872358E+01    2.5497941524245945E+01
OW    3.6239360438378050E+01    3.0275028562233903E+01    3.7189785077773116E+01
HW    3.6435402338102939E+01    3.0398675335743295E+01    3.8145495633274621E+01
HW    3.5589403619969261E+01    3.0985619621918502E+01    3.7052579322709981E+01
OW    2.5287522566199506E+01    3.1994080663799288E+01    2.9682742283948180E+01
HW    2.5806678692456003E+01    3.1746637931959633E+01    3.0516232206298668E+01
HW    2.6014441809849885E+01    3.2517375271341635E+01    2.9290482014052525E+01
OW    3.8342050207542222E+01    4.1629598225038187E+01    3.0692558570959200E+01
HW    3.9236821636615510E+01    4.1281311620507978E+01    3.0478184722927253E+01
HW    3.8594857887220265E+01    4.2299717936672700E+01    3.1344078824427321E+01
OW    2.7398298246763723E+01    3.0015829637996639E+01    2.8514371203003801E+01
HW    2.6517528505593027E+01    2.9686964483839741E+01    2.8765929221068408E+01
HW    2.7233645016542351E+01    3.0658364825822790E+01    2.7852202439108261E+01
OW    3.4075004287507156E+01    3.7030485526847954E+01    2.4365402826465782E+01
HW    3.4855087541576573E+01    3.7565504674150205E+01    2.4596296511307720E+01
HW    3.4042561283622142E+01    3.7037970162115265E+01    2.3416423043474953E+01
OW    2.6625490270561524E+01    3.8044739507279637E+01    3.1191794709579430E+01
HW    2.5650427940910525E+01    3.8131208866748594E+01    3.0997975509134260E+01
HW    2.6936401223630064E+01    3.8919995459071991E+01    3.0818682017574996E+01
OW    3.3900583274629710E+01    3.1790499669025738E+01    3.7205672058784302E+01
HW    3.3174357826936649E+01    3.2060832527389103E+01    3.6569558761062225E+01
HW    3.3543300231928697E+01    3.2101664026708562E+01    3.8036879546447508E+01
OW    2.1463256543072593E+01    3.1617107313670076E+01    2.9017537654345915E+01
HW    2.2177261076866589E+01    3.2012305334206026E+01    2.8505060194227866E+01
HW    2.0732289858588917E+01    3.2303752555508581E+01    2.8921898052604906E+01
OW    2.3874450021951880E+01    2.5184667820878545E+01    3.0195682678661480E+01
HW    2.2947368993507947E+01    2.4888839689095001E+01    3.0000858893680199E+01
HW    2.3701691191752850E+01    2.5906307128469354E+01    3.0834289326874497E+01
OW    2.8427186192057494E+01    1.8372067554730314E+01    3.5972365556897977E+01
HW    2.8350227926198308E+01    1.7552180697364246E+01    3.6419743239967538E+01
HW    2.9341667786466196E+01    1.8350833225517945E+01    3.5656941844531666E+01
OW    3.2250151386254622E+01    2.3243841867820329E+01    4.2584895800431411E+01
HW    3.1639313936970119E+01    2.3837172480135159E+01    4.3048455743840755E+01
HW    3.3082458387807776E+01    2.3411998988373369E+01    4.3061099419376490E+01
OW    3.6187862004792940E+01    2.7568612057722621E+01    4.3494665749736086E+01
HW    3.6589421174477067E+01    2.8477853534103279E+01    4.3350635927009904E+01
HW    3.6447565779194129E+01    2.7462483874371678E+01    4.4409579065759644E+01
OW    2.6514352126174117E+01    2.4221180564900145E+01    2.6374498055790585E+01
HW    2.6549396383707659E+01    2.5154492852576997E+01    2.6166436184204279E+01
HW    2.6120241882536547E+01    2.4307857850082815E+01    2.7290202748010422E+01
OW    2.5025179995657535E+01    2.2810434602345893E+01    3.0979742694207431E+01
HW    2.4719189272151290E+01    2.3689546009196690E+01    3.0594484860084531E+01
HW    2.5951776330091715E+01    2.3029381677706237E+01    3.1138892048253663E+01
OW    2.7956476937525487E+01    3.3052410078612098E+01    2.9472603940747678E+01
HW    2.8120022191236991E+01    3.2965286646164969E+01    2.8522561165611172E+01
HW    2.8321822625987565E+01    3.3879555446294354E+01    2.9717694943404855E+01
OW    3.3738619479819164E+01    2.8610509826239472E+01    2.3798310346703250E+01
HW    3.3412351812244587E+01    2.9476958466305355E+01    2.4105465234920381E+01
HW    3.3370605632782464E+01    2.7988495411605587E+01    2.4444318592758087E+01
OW    2.4604628709243983E+01    2.4291201725841486E+01    3.8790136583134675E+01
HW    2.5402115614539401E+01    2.4130882936412640E+01    3.9257853436192079E+01
HW    2.4525704679310280E+01    2.3629272695641667E+01    3.8112778448135259E+01
OW    3.2288970295863031E+01    2.6769940398604241E+01    2.8233583762645775E+01
HW    3.2130521946664004E+01    2.7734275213664688E+01    2.7984577165085810E+01
HW    3.3044248030099702E+01    2.6924583024424781E+01    2.8809594314902263E+01
OW    1.9474294249573838E+01    2.1534851232357564E+01    3.5612837943523992E+01
HW    1.9027787886089001E+01    2.1073500710520516E+01    3.4843061269070965E+01
HW    1.9850855693348304E+01    2.0683492366801197E+01    3.6056833133106743E+01
OW    2.3817484080282640E+01    1.6303504689971717E+01    3.1966966484309253E+01
HW    2.3950348543472185E+01    1.7246629848039284E+01    3.1801884526528109E+01
HW    2.4695120634180935E+01    1.5993716609849002E+01    3.2148502215886211E+01
OW    1.4808473683767115E+01    2.8980034006532030E+01    1.9920828051072416E+01
HW    1.5717200983968299E+01    2.9330723974896454E+01    1.9936026740425422E+01
HW    1.4292953313685231E+01    2.9795716147306273E+01    2.0149302786613013E+01
OW    2.9679861918783562E+01    2.9682703206411524E+01    3.0273145652832920E+01
HW    2.8950450591142658E+01    3.0308643148622775E+01    3.0164977240653968E+01
HW    2.9841853569841984E+01    2.9445039026533546E+01    2.9341749887561953E+01
OW    2.1228216657602363E+01    2.3170899821654420E+01    2.8302386979151866E+01
HW    2.1868624887622055E+01    2.2475441781347875E+01    2.8539102420392940E+01
HW    2.0655070468201384E+01    2.2629229559602916E+01    2.7675391839385021E+01
OW    2.6062958849554676E+01    2.7547993268533581E+01    2.9174490989898231E+01
HW    2.6608243419040623E+01    2.7694790169836249E+01    2.9953500528817944E+01
HW    2.5236272855474322E+01    2.7932872536464036E+01    2.9506473070856710E+01
OW    2.4154532432561854E+01    2.9306147053223050E+01    1.8267676839683265E+01
HW    2.5007984839354076E+01    2.9586726097429601E+01    1.7847111438955860E+01
HW    2.4510502931743474E+01    2.9226605712218760E+01    1.9231447681538679E+01
OW    3.2237727661710110E+01    2.3030266917103610E+01    3.2458043100556907E+01
HW    3.2482180437315805E+01    2.3989846819333504E+01    3.2369657733247948E+01
HW    3.3075587511308719E+01    2.2617270283168928E+01    3.2315138291042572E+01
OW    2.5409999445283404E+01    3.6596371085488997E+01    2.3684425095482403E+01
HW    2.5553497012041269E+01    3.7162407721244236E+01    2.4514284532312157E+01
HW    2.6128931000323416E+01    3.6992486129366860E+01    2.3154739290984676E+01
OW    4.3433256313489387E+01    1.6441613558931333E+01    4.0106556072598018E+01
HW    4.2579001906620562E+01    1.6906663383128119E+01    4.0132558492431563E+01
HW    4.3169415726172105E+01    1.5528465384338690E+01    4.0251012361065087E+01
OW    2.5422244728459859E+01    2.9275013715870323E+01    3.8149447828564611E+01
HW    2.6312779610464705E+01    2.9636898999131965E+01    3.8033244594721438E+01
HW    2.5467311709050858E+01    2.8481701924783550E+01    3.7603409486214282E+01
OW    2.6667313566706884E+01    2.9072701453131753E+01    3.2202491148181181E+01
HW    2.6819081511420602E+01    3.0039968582874266E+01    3.2013353570401470E+01
HW    2.6328969205192013E+01    2.9184073176107830E+01    3.3161715714641289E+01
OW    1.4849628906582833E+01    3.3163699431944181E+01    2.4790983367329101E+01
HW    1.5472383198395054E+01    3.3064227395091727E+01    2.4064322868516342E+01
HW    1.4184609841472065E+01    3.3798587557656731E+01    2.4444162860399548E+01
OW    2.1679100063628084E+01    3.0122674569450538E+01    3.5446478750776805E+01
HW    2.1339407786007261E+01    3.1005548688456294E+01    3.5611096403431823E+01
HW    2.1951189905560899E+01    2.9879640976656539E+01    3.6363815235269989E+01
OW    2.1430891082373261E+01    3.5587600344914236E+01    2.3981836031416812E+01
HW    2.0770609249503178E+01    3.6202312754912299E+01    2.4395663094465220E+01
HW    2.1467264342494687E+01    3.6024167494489532E+01    2.3065412885366307E+01
OW    2.8133492252613348E+01    3.7573927506942205E+01    3.3500489790129528E+01
HW    2.7856715329962867E+01    3.7851461322114908E+01    3.2608809493895457E+01
HW    2.7378402304203885E+01    3.7086050990657455E+01    3.3811957611411628E+01
OW    2.7695612618432939E+01    1.8927226216111233E+01    2.4391639890807870E+01
HW    2.7482636352503476E+01    1.9806949793848620E+01    2.4711184884872196E+01
HW    2.7995208324232145E+01    1.9213403781225594E+01    2.3456653102338979E+01
OW    2.9479741210548955E+01    3.4784347563079287E+01    4.0433609809932115E+01
HW    3.0242088526888821E+01    3.5447935133959660E+01    4.0510000286496876E+01
HW    2.9186271330051451E+01    3.4881409394856441E+01    4.1402562401764790E+01
OW    3.3982634457166782E+01    2.4042287630761791E+01    2.5081572940724104E+01
HW    3.4168127837587519E+01    2.3247451523260164E+01    2.5625221979379585E+01
HW    3.3593597079612898E+01    2.3597728316450496E+01    2.4275580423360715E+01
OW    2.3798329209646809E+01    3.2678791946393837E+01    2.7602475853068416E+01
HW    2.3531457589536462E+01    3.3655010619093524E+01    2.7577617205407691E+01
HW    2.4309206546455925E+01    3.2639758213647617E+01    2.8404614867891123E+01
OW    3.0416717541529970E+01    2.9748106313977559E+01    2.5190350617640256E+01
HW    3.0148326489195757E+01    3.0129963549711764E+01    2.4382973950730392E+01
HW    3.1377085421421040E+01    2.9895796715989171E+01    2.5236283741907034E+01
OW    2.2473565463559865E+01    2.7249922433185422E+01    2.7492576058278363E+01
HW    2.2124784864920553E+01    2.7784367144923195E+01    2.8260397511001191E+01
HW    2.2321685347923026E+01    2.7929659689410769E+01    2.6764378989267620E+01
OW    1.8074612496459814E+01    3.9083277152132183E+01    4.3396094881230077E+01
HW    1.8227447868224370E+01    3.8476442846752178E+01    4.2680107901483190E+01
HW    1.7154311668286944E+01    3.9342826819174753E+01    4.3247503781087296E+01
OW    2.7073175429165069E+01    3.2996091125114212E+01    3.6589236575032501E+01
HW    2.7430989326728959E+01    3.2165716660714430E+01    3.6869648005526216E+01
HW    2.6083216702518598E+01    3.2847731807466353E+01    3.6773693047215467E+01
OW    2.8376167017856410E+01    3.1130930763517828E+01    1.4548298657625516E+01
HW    2.8892018573753244E+01    3.1030256114603507E+01    1.5383688319323644E+01
HW    2.9087457976935283E+01    3.0904623059266704E+01    1.3910125854511394E+01
OW    3.2627245484228681E+01    2.8462259134645976E+01    3.9468288953062810E+01
HW    3.1964191017832540E+01    2.8986703870334949E+01    3.8913078243540959E+01
HW    3.2279387146512661E+01    2.8731200470768410E+01    4.0351399702228001E+01
OW    3.2444444078072173E+01    3.2416030053361411E+01    3.3544686997358525E+01
HW    3.2566474502038794E+01    3.2020880284515435E+01    3.2635363161339527E+01
HW    3.3165269788213550E+01    3.3076685556286073E+01    3.3535842476452657E+01
OW    2.8779512039471125E+01    3.2742116113074552E+01    2.6350798493230108E+01
HW    2.8987250572851366E+01    3.2708673152085915E+01    2.5404660428251976E+01
HW    2.9488338378622444E+01    3.2229318614743704E+01    2.6782469704069335E+01
OW    3.1331257325715669E+01    3.4470469368165112E+01    2.8329750888707931E+01
HW    3.1918976810223420E+01    3.4042426151302266E+01    2.7666799403915864E+01
HW    3.0637381525363484E+01    3.4849280940157279E+01    2.7778697413935678E+01
OW    1.3103613427321047E+01    3.2627979288242862E+01    1.8064493568383991E+01
HW    1.4004691054583278E+01    3.3028528869683136E+01    1.7905771781114986E+01
HW    1.2937510733072058E+01    3.2388206684503615E+01    1.7143130185935060E+01
OW    3.3479642052907380E+01    2.9339355817985865E+01    2.7645235904369610E+01